# Bcc NiTi alloy oriented X=[111], Y=[1-10], Z=[11-2].
1.000000
     64.88123761        0.00000000        0.00000000
      0.00000000       30.90226339        0.00000000
      0.00000000        0.00000000       30.58530872
 Ni  Ti
  2688    1344
Cartesian
      0.00000000        2.20730453        3.82316359
      1.80225660        0.00000000        5.09755145
      0.00000000        0.00000000        0.00000000
      1.80225660        2.20730453        1.27438786
      2.70338490        2.20730453        3.82316359
      4.50564150        0.00000000        5.09755145
      2.70338490        0.00000000        0.00000000
      4.50564150        2.20730453        1.27438786
      5.40676980        2.20730453        3.82316359
      7.20902640        0.00000000        5.09755145
      5.40676980        0.00000000        0.00000000
      7.20902640        2.20730453        1.27438786
      8.11015470        2.20730453        3.82316359
      9.91241130        0.00000000        5.09755145
      8.11015470        0.00000000        0.00000000
      9.91241130        2.20730453        1.27438786
     10.81353960        2.20730453        3.82316359
     12.61579620        0.00000000        5.09755145
     10.81353960        0.00000000        0.00000000
     12.61579620        2.20730453        1.27438786
     13.51692450        2.20730453        3.82316359
     15.31918110        0.00000000        5.09755145
     13.51692450        0.00000000        0.00000000
     15.31918110        2.20730453        1.27438786
     16.22030940        2.20730453        3.82316359
     18.02256600        0.00000000        5.09755145
     16.22030940        0.00000000        0.00000000
     18.02256600        2.20730453        1.27438786
     18.92369430        2.20730453        3.82316359
     20.72595090        0.00000000        5.09755145
     18.92369430        0.00000000        0.00000000
     20.72595090        2.20730453        1.27438786
     21.62707920        2.20730453        3.82316359
     23.42933580        0.00000000        5.09755145
     21.62707920        0.00000000        0.00000000
     23.42933580        2.20730453        1.27438786
     24.33046410        2.20730453        3.82316359
     26.13272070        0.00000000        5.09755145
     24.33046410        0.00000000        0.00000000
     26.13272070        2.20730453        1.27438786
     27.03384900        2.20730453        3.82316359
     28.83610560        0.00000000        5.09755145
     27.03384900        0.00000000        0.00000000
     28.83610560        2.20730453        1.27438786
     29.73723390        2.20730453        3.82316359
     31.53949051        0.00000000        5.09755145
     29.73723390        0.00000000        0.00000000
     31.53949051        2.20730453        1.27438786
     32.44061881        2.20730453        3.82316359
     34.24287541        0.00000000        5.09755145
     32.44061881        0.00000000        0.00000000
     34.24287541        2.20730453        1.27438786
     35.14400371        2.20730453        3.82316359
     36.94626031        0.00000000        5.09755145
     35.14400371        0.00000000        0.00000000
     36.94626031        2.20730453        1.27438786
     37.84738861        2.20730453        3.82316359
     39.64964521        0.00000000        5.09755145
     37.84738861        0.00000000        0.00000000
     39.64964521        2.20730453        1.27438786
     40.55077351        2.20730453        3.82316359
     42.35303011        0.00000000        5.09755145
     40.55077351        0.00000000        0.00000000
     42.35303011        2.20730453        1.27438786
     43.25415841        2.20730453        3.82316359
     45.05641501        0.00000000        5.09755145
     43.25415841        0.00000000        0.00000000
     45.05641501        2.20730453        1.27438786
     45.95754331        2.20730453        3.82316359
     47.75979991        0.00000000        5.09755145
     45.95754331        0.00000000        0.00000000
     47.75979991        2.20730453        1.27438786
     48.66092821        2.20730453        3.82316359
     50.46318481        0.00000000        5.09755145
     48.66092821        0.00000000        0.00000000
     50.46318481        2.20730453        1.27438786
     51.36431311        2.20730453        3.82316359
     53.16656971        0.00000000        5.09755145
     51.36431311        0.00000000        0.00000000
     53.16656971        2.20730453        1.27438786
     54.06769801        2.20730453        3.82316359
     55.86995461        0.00000000        5.09755145
     54.06769801        0.00000000        0.00000000
     55.86995461        2.20730453        1.27438786
     56.77108291        2.20730453        3.82316359
     58.57333951        0.00000000        5.09755145
     56.77108291        0.00000000        0.00000000
     58.57333951        2.20730453        1.27438786
     59.47446781        2.20730453        3.82316359
     61.27672441        0.00000000        5.09755145
     59.47446781        0.00000000        0.00000000
     61.27672441        2.20730453        1.27438786
     62.17785271        2.20730453        3.82316359
     63.98010931        0.00000000        5.09755145
     62.17785271        0.00000000        0.00000000
     63.98010931        2.20730453        1.27438786
      0.00000000        6.62191358        3.82316359
      1.80225660        4.41460906        5.09755145
      0.00000000        4.41460906        0.00000000
      1.80225660        6.62191358        1.27438786
      2.70338490        6.62191358        3.82316359
      4.50564150        4.41460906        5.09755145
      2.70338490        4.41460906        0.00000000
      4.50564150        6.62191358        1.27438786
      5.40676980        6.62191358        3.82316359
      7.20902640        4.41460906        5.09755145
      5.40676980        4.41460906        0.00000000
      7.20902640        6.62191358        1.27438786
      8.11015470        6.62191358        3.82316359
      9.91241130        4.41460906        5.09755145
      8.11015470        4.41460906        0.00000000
      9.91241130        6.62191358        1.27438786
     10.81353960        6.62191358        3.82316359
     12.61579620        4.41460906        5.09755145
     10.81353960        4.41460906        0.00000000
     12.61579620        6.62191358        1.27438786
     13.51692450        6.62191358        3.82316359
     15.31918110        4.41460906        5.09755145
     13.51692450        4.41460906        0.00000000
     15.31918110        6.62191358        1.27438786
     16.22030940        6.62191358        3.82316359
     18.02256600        4.41460906        5.09755145
     16.22030940        4.41460906        0.00000000
     18.02256600        6.62191358        1.27438786
     18.92369430        6.62191358        3.82316359
     20.72595090        4.41460906        5.09755145
     18.92369430        4.41460906        0.00000000
     20.72595090        6.62191358        1.27438786
     21.62707920        6.62191358        3.82316359
     23.42933580        4.41460906        5.09755145
     21.62707920        4.41460906        0.00000000
     23.42933580        6.62191358        1.27438786
     24.33046410        6.62191358        3.82316359
     26.13272070        4.41460906        5.09755145
     24.33046410        4.41460906        0.00000000
     26.13272070        6.62191358        1.27438786
     27.03384900        6.62191358        3.82316359
     28.83610560        4.41460906        5.09755145
     27.03384900        4.41460906        0.00000000
     28.83610560        6.62191358        1.27438786
     29.73723390        6.62191358        3.82316359
     31.53949051        4.41460906        5.09755145
     29.73723390        4.41460906        0.00000000
     31.53949051        6.62191358        1.27438786
     32.44061881        6.62191358        3.82316359
     34.24287541        4.41460906        5.09755145
     32.44061881        4.41460906        0.00000000
     34.24287541        6.62191358        1.27438786
     35.14400371        6.62191358        3.82316359
     36.94626031        4.41460906        5.09755145
     35.14400371        4.41460906        0.00000000
     36.94626031        6.62191358        1.27438786
     37.84738861        6.62191358        3.82316359
     39.64964521        4.41460906        5.09755145
     37.84738861        4.41460906        0.00000000
     39.64964521        6.62191358        1.27438786
     40.55077351        6.62191358        3.82316359
     42.35303011        4.41460906        5.09755145
     40.55077351        4.41460906        0.00000000
     42.35303011        6.62191358        1.27438786
     43.25415841        6.62191358        3.82316359
     45.05641501        4.41460906        5.09755145
     43.25415841        4.41460906        0.00000000
     45.05641501        6.62191358        1.27438786
     45.95754331        6.62191358        3.82316359
     47.75979991        4.41460906        5.09755145
     45.95754331        4.41460906        0.00000000
     47.75979991        6.62191358        1.27438786
     48.66092821        6.62191358        3.82316359
     50.46318481        4.41460906        5.09755145
     48.66092821        4.41460906        0.00000000
     50.46318481        6.62191358        1.27438786
     51.36431311        6.62191358        3.82316359
     53.16656971        4.41460906        5.09755145
     51.36431311        4.41460906        0.00000000
     53.16656971        6.62191358        1.27438786
     54.06769801        6.62191358        3.82316359
     55.86995461        4.41460906        5.09755145
     54.06769801        4.41460906        0.00000000
     55.86995461        6.62191358        1.27438786
     56.77108291        6.62191358        3.82316359
     58.57333951        4.41460906        5.09755145
     56.77108291        4.41460906        0.00000000
     58.57333951        6.62191358        1.27438786
     59.47446781        6.62191358        3.82316359
     61.27672441        4.41460906        5.09755145
     59.47446781        4.41460906        0.00000000
     61.27672441        6.62191358        1.27438786
     62.17785271        6.62191358        3.82316359
     63.98010931        4.41460906        5.09755145
     62.17785271        4.41460906        0.00000000
     63.98010931        6.62191358        1.27438786
      0.00000000       11.03652264        3.82316359
      1.80225660        8.82921811        5.09755145
      0.00000000        8.82921811        0.00000000
      1.80225660       11.03652264        1.27438786
      2.70338490       11.03652264        3.82316359
      4.50564150        8.82921811        5.09755145
      2.70338490        8.82921811        0.00000000
      4.50564150       11.03652264        1.27438786
      5.40676980       11.03652264        3.82316359
      7.20902640        8.82921811        5.09755145
      5.40676980        8.82921811        0.00000000
      7.20902640       11.03652264        1.27438786
      8.11015470       11.03652264        3.82316359
      9.91241130        8.82921811        5.09755145
      8.11015470        8.82921811        0.00000000
      9.91241130       11.03652264        1.27438786
     10.81353960       11.03652264        3.82316359
     12.61579620        8.82921811        5.09755145
     10.81353960        8.82921811        0.00000000
     12.61579620       11.03652264        1.27438786
     13.51692450       11.03652264        3.82316359
     15.31918110        8.82921811        5.09755145
     13.51692450        8.82921811        0.00000000
     15.31918110       11.03652264        1.27438786
     16.22030940       11.03652264        3.82316359
     18.02256600        8.82921811        5.09755145
     16.22030940        8.82921811        0.00000000
     18.02256600       11.03652264        1.27438786
     18.92369430       11.03652264        3.82316359
     20.72595090        8.82921811        5.09755145
     18.92369430        8.82921811        0.00000000
     20.72595090       11.03652264        1.27438786
     21.62707920       11.03652264        3.82316359
     23.42933580        8.82921811        5.09755145
     21.62707920        8.82921811        0.00000000
     23.42933580       11.03652264        1.27438786
     24.33046410       11.03652264        3.82316359
     26.13272070        8.82921811        5.09755145
     24.33046410        8.82921811        0.00000000
     26.13272070       11.03652264        1.27438786
     27.03384900       11.03652264        3.82316359
     28.83610560        8.82921811        5.09755145
     27.03384900        8.82921811        0.00000000
     28.83610560       11.03652264        1.27438786
     29.73723390       11.03652264        3.82316359
     31.53949051        8.82921811        5.09755145
     29.73723390        8.82921811        0.00000000
     31.53949051       11.03652264        1.27438786
     32.44061881       11.03652264        3.82316359
     34.24287541        8.82921811        5.09755145
     32.44061881        8.82921811        0.00000000
     34.24287541       11.03652264        1.27438786
     35.14400371       11.03652264        3.82316359
     36.94626031        8.82921811        5.09755145
     35.14400371        8.82921811        0.00000000
     36.94626031       11.03652264        1.27438786
     37.84738861       11.03652264        3.82316359
     39.64964521        8.82921811        5.09755145
     37.84738861        8.82921811        0.00000000
     39.64964521       11.03652264        1.27438786
     40.55077351       11.03652264        3.82316359
     42.35303011        8.82921811        5.09755145
     40.55077351        8.82921811        0.00000000
     42.35303011       11.03652264        1.27438786
     43.25415841       11.03652264        3.82316359
     45.05641501        8.82921811        5.09755145
     43.25415841        8.82921811        0.00000000
     45.05641501       11.03652264        1.27438786
     45.95754331       11.03652264        3.82316359
     47.75979991        8.82921811        5.09755145
     45.95754331        8.82921811        0.00000000
     47.75979991       11.03652264        1.27438786
     48.66092821       11.03652264        3.82316359
     50.46318481        8.82921811        5.09755145
     48.66092821        8.82921811        0.00000000
     50.46318481       11.03652264        1.27438786
     51.36431311       11.03652264        3.82316359
     53.16656971        8.82921811        5.09755145
     51.36431311        8.82921811        0.00000000
     53.16656971       11.03652264        1.27438786
     54.06769801       11.03652264        3.82316359
     55.86995461        8.82921811        5.09755145
     54.06769801        8.82921811        0.00000000
     55.86995461       11.03652264        1.27438786
     56.77108291       11.03652264        3.82316359
     58.57333951        8.82921811        5.09755145
     56.77108291        8.82921811        0.00000000
     58.57333951       11.03652264        1.27438786
     59.47446781       11.03652264        3.82316359
     61.27672441        8.82921811        5.09755145
     59.47446781        8.82921811        0.00000000
     61.27672441       11.03652264        1.27438786
     62.17785271       11.03652264        3.82316359
     63.98010931        8.82921811        5.09755145
     62.17785271        8.82921811        0.00000000
     63.98010931       11.03652264        1.27438786
      0.00000000       15.45113170        3.82316359
      1.80225660       13.24382717        5.09755145
      0.00000000       13.24382717        0.00000000
      1.80225660       15.45113170        1.27438786
      2.70338490       15.45113170        3.82316359
      4.50564150       13.24382717        5.09755145
      2.70338490       13.24382717        0.00000000
      4.50564150       15.45113170        1.27438786
      5.40676980       15.45113170        3.82316359
      7.20902640       13.24382717        5.09755145
      5.40676980       13.24382717        0.00000000
      7.20902640       15.45113170        1.27438786
      8.11015470       15.45113170        3.82316359
      9.91241130       13.24382717        5.09755145
      8.11015470       13.24382717        0.00000000
      9.91241130       15.45113170        1.27438786
     10.81353960       15.45113170        3.82316359
     12.61579620       13.24382717        5.09755145
     10.81353960       13.24382717        0.00000000
     12.61579620       15.45113170        1.27438786
     13.51692450       15.45113170        3.82316359
     15.31918110       13.24382717        5.09755145
     13.51692450       13.24382717        0.00000000
     15.31918110       15.45113170        1.27438786
     16.22030940       15.45113170        3.82316359
     18.02256600       13.24382717        5.09755145
     16.22030940       13.24382717        0.00000000
     18.02256600       15.45113170        1.27438786
     18.92369430       15.45113170        3.82316359
     20.72595090       13.24382717        5.09755145
     18.92369430       13.24382717        0.00000000
     20.72595090       15.45113170        1.27438786
     21.62707920       15.45113170        3.82316359
     23.42933580       13.24382717        5.09755145
     21.62707920       13.24382717        0.00000000
     23.42933580       15.45113170        1.27438786
     24.33046410       15.45113170        3.82316359
     26.13272070       13.24382717        5.09755145
     24.33046410       13.24382717        0.00000000
     26.13272070       15.45113170        1.27438786
     27.03384900       15.45113170        3.82316359
     28.83610560       13.24382717        5.09755145
     27.03384900       13.24382717        0.00000000
     28.83610560       15.45113170        1.27438786
     29.73723390       15.45113170        3.82316359
     31.53949051       13.24382717        5.09755145
     29.73723390       13.24382717        0.00000000
     31.53949051       15.45113170        1.27438786
     32.44061881       15.45113170        3.82316359
     34.24287541       13.24382717        5.09755145
     32.44061881       13.24382717        0.00000000
     34.24287541       15.45113170        1.27438786
     35.14400371       15.45113170        3.82316359
     36.94626031       13.24382717        5.09755145
     35.14400371       13.24382717        0.00000000
     36.94626031       15.45113170        1.27438786
     37.84738861       15.45113170        3.82316359
     39.64964521       13.24382717        5.09755145
     37.84738861       13.24382717        0.00000000
     39.64964521       15.45113170        1.27438786
     40.55077351       15.45113170        3.82316359
     42.35303011       13.24382717        5.09755145
     40.55077351       13.24382717        0.00000000
     42.35303011       15.45113170        1.27438786
     43.25415841       15.45113170        3.82316359
     45.05641501       13.24382717        5.09755145
     43.25415841       13.24382717        0.00000000
     45.05641501       15.45113170        1.27438786
     45.95754331       15.45113170        3.82316359
     47.75979991       13.24382717        5.09755145
     45.95754331       13.24382717        0.00000000
     47.75979991       15.45113170        1.27438786
     48.66092821       15.45113170        3.82316359
     50.46318481       13.24382717        5.09755145
     48.66092821       13.24382717        0.00000000
     50.46318481       15.45113170        1.27438786
     51.36431311       15.45113170        3.82316359
     53.16656971       13.24382717        5.09755145
     51.36431311       13.24382717        0.00000000
     53.16656971       15.45113170        1.27438786
     54.06769801       15.45113170        3.82316359
     55.86995461       13.24382717        5.09755145
     54.06769801       13.24382717        0.00000000
     55.86995461       15.45113170        1.27438786
     56.77108291       15.45113170        3.82316359
     58.57333951       13.24382717        5.09755145
     56.77108291       13.24382717        0.00000000
     58.57333951       15.45113170        1.27438786
     59.47446781       15.45113170        3.82316359
     61.27672441       13.24382717        5.09755145
     59.47446781       13.24382717        0.00000000
     61.27672441       15.45113170        1.27438786
     62.17785271       15.45113170        3.82316359
     63.98010931       13.24382717        5.09755145
     62.17785271       13.24382717        0.00000000
     63.98010931       15.45113170        1.27438786
      0.00000000       19.86574075        3.82316359
      1.80225660       17.65843623        5.09755145
      0.00000000       17.65843623        0.00000000
      1.80225660       19.86574075        1.27438786
      2.70338490       19.86574075        3.82316359
      4.50564150       17.65843623        5.09755145
      2.70338490       17.65843623        0.00000000
      4.50564150       19.86574075        1.27438786
      5.40676980       19.86574075        3.82316359
      7.20902640       17.65843623        5.09755145
      5.40676980       17.65843623        0.00000000
      7.20902640       19.86574075        1.27438786
      8.11015470       19.86574075        3.82316359
      9.91241130       17.65843623        5.09755145
      8.11015470       17.65843623        0.00000000
      9.91241130       19.86574075        1.27438786
     10.81353960       19.86574075        3.82316359
     12.61579620       17.65843623        5.09755145
     10.81353960       17.65843623        0.00000000
     12.61579620       19.86574075        1.27438786
     13.51692450       19.86574075        3.82316359
     15.31918110       17.65843623        5.09755145
     13.51692450       17.65843623        0.00000000
     15.31918110       19.86574075        1.27438786
     16.22030940       19.86574075        3.82316359
     18.02256600       17.65843623        5.09755145
     16.22030940       17.65843623        0.00000000
     18.02256600       19.86574075        1.27438786
     18.92369430       19.86574075        3.82316359
     20.72595090       17.65843623        5.09755145
     18.92369430       17.65843623        0.00000000
     20.72595090       19.86574075        1.27438786
     21.62707920       19.86574075        3.82316359
     23.42933580       17.65843623        5.09755145
     21.62707920       17.65843623        0.00000000
     23.42933580       19.86574075        1.27438786
     24.33046410       19.86574075        3.82316359
     26.13272070       17.65843623        5.09755145
     24.33046410       17.65843623        0.00000000
     26.13272070       19.86574075        1.27438786
     27.03384900       19.86574075        3.82316359
     28.83610560       17.65843623        5.09755145
     27.03384900       17.65843623        0.00000000
     28.83610560       19.86574075        1.27438786
     29.73723390       19.86574075        3.82316359
     31.53949051       17.65843623        5.09755145
     29.73723390       17.65843623        0.00000000
     31.53949051       19.86574075        1.27438786
     32.44061881       19.86574075        3.82316359
     34.24287541       17.65843623        5.09755145
     32.44061881       17.65843623        0.00000000
     34.24287541       19.86574075        1.27438786
     35.14400371       19.86574075        3.82316359
     36.94626031       17.65843623        5.09755145
     35.14400371       17.65843623        0.00000000
     36.94626031       19.86574075        1.27438786
     37.84738861       19.86574075        3.82316359
     39.64964521       17.65843623        5.09755145
     37.84738861       17.65843623        0.00000000
     39.64964521       19.86574075        1.27438786
     40.55077351       19.86574075        3.82316359
     42.35303011       17.65843623        5.09755145
     40.55077351       17.65843623        0.00000000
     42.35303011       19.86574075        1.27438786
     43.25415841       19.86574075        3.82316359
     45.05641501       17.65843623        5.09755145
     43.25415841       17.65843623        0.00000000
     45.05641501       19.86574075        1.27438786
     45.95754331       19.86574075        3.82316359
     47.75979991       17.65843623        5.09755145
     45.95754331       17.65843623        0.00000000
     47.75979991       19.86574075        1.27438786
     48.66092821       19.86574075        3.82316359
     50.46318481       17.65843623        5.09755145
     48.66092821       17.65843623        0.00000000
     50.46318481       19.86574075        1.27438786
     51.36431311       19.86574075        3.82316359
     53.16656971       17.65843623        5.09755145
     51.36431311       17.65843623        0.00000000
     53.16656971       19.86574075        1.27438786
     54.06769801       19.86574075        3.82316359
     55.86995461       17.65843623        5.09755145
     54.06769801       17.65843623        0.00000000
     55.86995461       19.86574075        1.27438786
     56.77108291       19.86574075        3.82316359
     58.57333951       17.65843623        5.09755145
     56.77108291       17.65843623        0.00000000
     58.57333951       19.86574075        1.27438786
     59.47446781       19.86574075        3.82316359
     61.27672441       17.65843623        5.09755145
     59.47446781       17.65843623        0.00000000
     61.27672441       19.86574075        1.27438786
     62.17785271       19.86574075        3.82316359
     63.98010931       17.65843623        5.09755145
     62.17785271       17.65843623        0.00000000
     63.98010931       19.86574075        1.27438786
      0.00000000       24.28034981        3.82316359
      1.80225660       22.07304528        5.09755145
      0.00000000       22.07304528        0.00000000
      1.80225660       24.28034981        1.27438786
      2.70338490       24.28034981        3.82316359
      4.50564150       22.07304528        5.09755145
      2.70338490       22.07304528        0.00000000
      4.50564150       24.28034981        1.27438786
      5.40676980       24.28034981        3.82316359
      7.20902640       22.07304528        5.09755145
      5.40676980       22.07304528        0.00000000
      7.20902640       24.28034981        1.27438786
      8.11015470       24.28034981        3.82316359
      9.91241130       22.07304528        5.09755145
      8.11015470       22.07304528        0.00000000
      9.91241130       24.28034981        1.27438786
     10.81353960       24.28034981        3.82316359
     12.61579620       22.07304528        5.09755145
     10.81353960       22.07304528        0.00000000
     12.61579620       24.28034981        1.27438786
     13.51692450       24.28034981        3.82316359
     15.31918110       22.07304528        5.09755145
     13.51692450       22.07304528        0.00000000
     15.31918110       24.28034981        1.27438786
     16.22030940       24.28034981        3.82316359
     18.02256600       22.07304528        5.09755145
     16.22030940       22.07304528        0.00000000
     18.02256600       24.28034981        1.27438786
     18.92369430       24.28034981        3.82316359
     20.72595090       22.07304528        5.09755145
     18.92369430       22.07304528        0.00000000
     20.72595090       24.28034981        1.27438786
     21.62707920       24.28034981        3.82316359
     23.42933580       22.07304528        5.09755145
     21.62707920       22.07304528        0.00000000
     23.42933580       24.28034981        1.27438786
     24.33046410       24.28034981        3.82316359
     26.13272070       22.07304528        5.09755145
     24.33046410       22.07304528        0.00000000
     26.13272070       24.28034981        1.27438786
     27.03384900       24.28034981        3.82316359
     28.83610560       22.07304528        5.09755145
     27.03384900       22.07304528        0.00000000
     28.83610560       24.28034981        1.27438786
     29.73723390       24.28034981        3.82316359
     31.53949051       22.07304528        5.09755145
     29.73723390       22.07304528        0.00000000
     31.53949051       24.28034981        1.27438786
     32.44061881       24.28034981        3.82316359
     34.24287541       22.07304528        5.09755145
     32.44061881       22.07304528        0.00000000
     34.24287541       24.28034981        1.27438786
     35.14400371       24.28034981        3.82316359
     36.94626031       22.07304528        5.09755145
     35.14400371       22.07304528        0.00000000
     36.94626031       24.28034981        1.27438786
     37.84738861       24.28034981        3.82316359
     39.64964521       22.07304528        5.09755145
     37.84738861       22.07304528        0.00000000
     39.64964521       24.28034981        1.27438786
     40.55077351       24.28034981        3.82316359
     42.35303011       22.07304528        5.09755145
     40.55077351       22.07304528        0.00000000
     42.35303011       24.28034981        1.27438786
     43.25415841       24.28034981        3.82316359
     45.05641501       22.07304528        5.09755145
     43.25415841       22.07304528        0.00000000
     45.05641501       24.28034981        1.27438786
     45.95754331       24.28034981        3.82316359
     47.75979991       22.07304528        5.09755145
     45.95754331       22.07304528        0.00000000
     47.75979991       24.28034981        1.27438786
     48.66092821       24.28034981        3.82316359
     50.46318481       22.07304528        5.09755145
     48.66092821       22.07304528        0.00000000
     50.46318481       24.28034981        1.27438786
     51.36431311       24.28034981        3.82316359
     53.16656971       22.07304528        5.09755145
     51.36431311       22.07304528        0.00000000
     53.16656971       24.28034981        1.27438786
     54.06769801       24.28034981        3.82316359