# Bcc NiTi alloy oriented X=[100], Y=[010], Z=[001].
1.000000
     62.43200000        0.00000000        0.00000000
      0.00000000       31.21600000        0.00000000
      0.00000000        0.00000000       31.21600000
 Ni  Ti
  2000    2000
Cartesian
      0.00000000        0.00000000        0.00000000
      3.12160000        0.00000000        0.00000000
      6.24320000        0.00000000        0.00000000
      9.36480000        0.00000000        0.00000000
     12.48640000        0.00000000        0.00000000
     15.60800000        0.00000000        0.00000000
     18.72960000        0.00000000        0.00000000
     21.85120000        0.00000000        0.00000000
     24.97280000        0.00000000        0.00000000
     28.09440000        0.00000000        0.00000000
     31.21600000        0.00000000        0.00000000
     34.33760000        0.00000000        0.00000000
     37.45920000        0.00000000        0.00000000
     40.58080000        0.00000000        0.00000000
     43.70240000        0.00000000        0.00000000
     46.82400000        0.00000000        0.00000000
     49.94560000        0.00000000        0.00000000
     53.06720000        0.00000000        0.00000000
     56.18880000        0.00000000        0.00000000
     59.31040000        0.00000000        0.00000000
      0.00000000        3.12160000        0.00000000
      3.12160000        3.12160000        0.00000000
      6.24320000        3.12160000        0.00000000
      9.36480000        3.12160000        0.00000000
     12.48640000        3.12160000        0.00000000
     15.60800000        3.12160000        0.00000000
     18.72960000        3.12160000        0.00000000
     21.85120000        3.12160000        0.00000000
     24.97280000        3.12160000        0.00000000
     28.09440000        3.12160000        0.00000000
     31.21600000        3.12160000        0.00000000
     34.33760000        3.12160000        0.00000000
     37.45920000        3.12160000        0.00000000
     40.58080000        3.12160000        0.00000000
     43.70240000        3.12160000        0.00000000
     46.82400000        3.12160000        0.00000000
     49.94560000        3.12160000        0.00000000
     53.06720000        3.12160000        0.00000000
     56.18880000        3.12160000        0.00000000
     59.31040000        3.12160000        0.00000000
      0.00000000        6.24320000        0.00000000
      3.12160000        6.24320000        0.00000000
      6.24320000        6.24320000        0.00000000
      9.36480000        6.24320000        0.00000000
     12.48640000        6.24320000        0.00000000
     15.60800000        6.24320000        0.00000000
     18.72960000        6.24320000        0.00000000
     21.85120000        6.24320000        0.00000000
     24.97280000        6.24320000        0.00000000
     28.09440000        6.24320000        0.00000000
     31.21600000        6.24320000        0.00000000
     34.33760000        6.24320000        0.00000000
     37.45920000        6.24320000        0.00000000
     40.58080000        6.24320000        0.00000000
     43.70240000        6.24320000        0.00000000
     46.82400000        6.24320000        0.00000000
     49.94560000        6.24320000        0.00000000
     53.06720000        6.24320000        0.00000000
     56.18880000        6.24320000        0.00000000
     59.31040000        6.24320000        0.00000000
      0.00000000        9.36480000        0.00000000
      3.12160000        9.36480000        0.00000000
      6.24320000        9.36480000        0.00000000
      9.36480000        9.36480000        0.00000000
     12.48640000        9.36480000        0.00000000
     15.60800000        9.36480000        0.00000000
     18.72960000        9.36480000        0.00000000
     21.85120000        9.36480000        0.00000000
     24.97280000        9.36480000        0.00000000
     28.09440000        9.36480000        0.00000000
     31.21600000        9.36480000        0.00000000
     34.33760000        9.36480000        0.00000000
     37.45920000        9.36480000        0.00000000
     40.58080000        9.36480000        0.00000000
     43.70240000        9.36480000        0.00000000
     46.82400000        9.36480000        0.00000000
     49.94560000        9.36480000        0.00000000
     53.06720000        9.36480000        0.00000000
     56.18880000        9.36480000        0.00000000
     59.31040000        9.36480000        0.00000000
      0.00000000       12.48640000        0.00000000
      3.12160000       12.48640000        0.00000000
      6.24320000       12.48640000        0.00000000
      9.36480000       12.48640000        0.00000000
     12.48640000       12.48640000        0.00000000
     15.60800000       12.48640000        0.00000000
     18.72960000       12.48640000        0.00000000
     21.85120000       12.48640000        0.00000000
     24.97280000       12.48640000        0.00000000
     28.09440000       12.48640000        0.00000000
     31.21600000       12.48640000        0.00000000
     34.33760000       12.48640000        0.00000000
     37.45920000       12.48640000        0.00000000
     40.58080000       12.48640000        0.00000000
     43.70240000       12.48640000        0.00000000
     46.82400000       12.48640000        0.00000000
     49.94560000       12.48640000        0.00000000
     53.06720000       12.48640000        0.00000000
     56.18880000       12.48640000        0.00000000
     59.31040000       12.48640000        0.00000000
      0.00000000       15.60800000        0.00000000
      3.12160000       15.60800000        0.00000000
      6.24320000       15.60800000        0.00000000
      9.36480000       15.60800000        0.00000000
     12.48640000       15.60800000        0.00000000
     15.60800000       15.60800000        0.00000000
     18.72960000       15.60800000        0.00000000
     21.85120000       15.60800000        0.00000000
     24.97280000       15.60800000        0.00000000
     28.09440000       15.60800000        0.00000000
     31.21600000       15.60800000        0.00000000
     34.33760000       15.60800000        0.00000000
     37.45920000       15.60800000        0.00000000
     40.58080000       15.60800000        0.00000000
     43.70240000       15.60800000        0.00000000
     46.82400000       15.60800000        0.00000000
     49.94560000       15.60800000        0.00000000
     53.06720000       15.60800000        0.00000000
     56.18880000       15.60800000        0.00000000
     59.31040000       15.60800000        0.00000000
      0.00000000       18.72960000        0.00000000
      3.12160000       18.72960000        0.00000000
      6.24320000       18.72960000        0.00000000
      9.36480000       18.72960000        0.00000000
     12.48640000       18.72960000        0.00000000
     15.60800000       18.72960000        0.00000000
     18.72960000       18.72960000        0.00000000
     21.85120000       18.72960000        0.00000000
     24.97280000       18.72960000        0.00000000
     28.09440000       18.72960000        0.00000000
     31.21600000       18.72960000        0.00000000
     34.33760000       18.72960000        0.00000000
     37.45920000       18.72960000        0.00000000
     40.58080000       18.72960000        0.00000000
     43.70240000       18.72960000        0.00000000
     46.82400000       18.72960000        0.00000000
     49.94560000       18.72960000        0.00000000
     53.06720000       18.72960000        0.00000000
     56.18880000       18.72960000        0.00000000
     59.31040000       18.72960000        0.00000000
      0.00000000       21.85120000        0.00000000
      3.12160000       21.85120000        0.00000000
      6.24320000       21.85120000        0.00000000
      9.36480000       21.85120000        0.00000000
     12.48640000       21.85120000        0.00000000
     15.60800000       21.85120000        0.00000000
     18.72960000       21.85120000        0.00000000
     21.85120000       21.85120000        0.00000000
     24.97280000       21.85120000        0.00000000
     28.09440000       21.85120000        0.00000000
     31.21600000       21.85120000        0.00000000
     34.33760000       21.85120000        0.00000000
     37.45920000       21.85120000        0.00000000
     40.58080000       21.85120000        0.00000000
     43.70240000       21.85120000        0.00000000
     46.82400000       21.85120000        0.00000000
     49.94560000       21.85120000        0.00000000
     53.06720000       21.85120000        0.00000000
     56.18880000       21.85120000        0.00000000
     59.31040000       21.85120000        0.00000000
      0.00000000       24.97280000        0.00000000
      3.12160000       24.97280000        0.00000000
      6.24320000       24.97280000        0.00000000
      9.36480000       24.97280000        0.00000000
     12.48640000       24.97280000        0.00000000
     15.60800000       24.97280000        0.00000000
     18.72960000       24.97280000        0.00000000
     21.85120000       24.97280000        0.00000000
     24.97280000       24.97280000        0.00000000
     28.09440000       24.97280000        0.00000000
     31.21600000       24.97280000        0.00000000
     34.33760000       24.97280000        0.00000000
     37.45920000       24.97280000        0.00000000
     40.58080000       24.97280000        0.00000000
     43.70240000       24.97280000        0.00000000
     46.82400000       24.97280000        0.00000000
     49.94560000       24.97280000        0.00000000
     53.06720000       24.97280000        0.00000000
     56.18880000       24.97280000        0.00000000
     59.31040000       24.97280000        0.00000000
      0.00000000       28.09440000        0.00000000
      3.12160000       28.09440000        0.00000000
      6.24320000       28.09440000        0.00000000
      9.36480000       28.09440000        0.00000000
     12.48640000       28.09440000        0.00000000
     15.60800000       28.09440000        0.00000000
     18.72960000       28.09440000        0.00000000
     21.85120000       28.09440000        0.00000000
     24.97280000       28.09440000        0.00000000
     28.09440000       28.09440000        0.00000000
     31.21600000       28.09440000        0.00000000
     34.33760000       28.09440000        0.00000000
     37.45920000       28.09440000        0.00000000
     40.58080000       28.09440000        0.00000000
     43.70240000       28.09440000        0.00000000
     46.82400000       28.09440000        0.00000000
     49.94560000       28.09440000        0.00000000
     53.06720000       28.09440000        0.00000000
     56.18880000       28.09440000        0.00000000
     59.31040000       28.09440000        0.00000000
      0.00000000        0.00000000        3.12160000
      3.12160000        0.00000000        3.12160000
      6.24320000        0.00000000        3.12160000
      9.36480000        0.00000000        3.12160000
     12.48640000        0.00000000        3.12160000
     15.60800000        0.00000000        3.12160000
     18.72960000        0.00000000        3.12160000
     21.85120000        0.00000000        3.12160000
     24.97280000        0.00000000        3.12160000
     28.09440000        0.00000000        3.12160000
     31.21600000        0.00000000        3.12160000
     34.33760000        0.00000000        3.12160000
     37.45920000        0.00000000        3.12160000
     40.58080000        0.00000000        3.12160000
     43.70240000        0.00000000        3.12160000
     46.82400000        0.00000000        3.12160000
     49.94560000        0.00000000        3.12160000
     53.06720000        0.00000000        3.12160000
     56.18880000        0.00000000        3.12160000
     59.31040000        0.00000000        3.12160000
      0.00000000        3.12160000        3.12160000
      3.12160000        3.12160000        3.12160000
      6.24320000        3.12160000        3.12160000
      9.36480000        3.12160000        3.12160000
     12.48640000        3.12160000        3.12160000
     15.60800000        3.12160000        3.12160000
     18.72960000        3.12160000        3.12160000
     21.85120000        3.12160000        3.12160000
     24.97280000        3.12160000        3.12160000
     28.09440000        3.12160000        3.12160000
     31.21600000        3.12160000        3.12160000
     34.33760000        3.12160000        3.12160000
     37.45920000        3.12160000        3.12160000
     40.58080000        3.12160000        3.12160000
     43.70240000        3.12160000        3.12160000
     46.82400000        3.12160000        3.12160000
     49.94560000        3.12160000        3.12160000
     53.06720000        3.12160000        3.12160000
     56.18880000        3.12160000        3.12160000
     59.31040000        3.12160000        3.12160000
      0.00000000        6.24320000        3.12160000
      3.12160000        6.24320000        3.12160000
      6.24320000        6.24320000        3.12160000
      9.36480000        6.24320000        3.12160000
     12.48640000        6.24320000        3.12160000
     15.60800000        6.24320000        3.12160000
     18.72960000        6.24320000        3.12160000
     21.85120000        6.24320000        3.12160000
     24.97280000        6.24320000        3.12160000
     28.09440000        6.24320000        3.12160000
     31.21600000        6.24320000        3.12160000
     34.33760000        6.24320000        3.12160000
     37.45920000        6.24320000        3.12160000
     40.58080000        6.24320000        3.12160000
     43.70240000        6.24320000        3.12160000
     46.82400000        6.24320000        3.12160000
     49.94560000        6.24320000        3.12160000
     53.06720000        6.24320000        3.12160000
     56.18880000        6.24320000        3.12160000
     59.31040000        6.24320000        3.12160000
      0.00000000        9.36480000        3.12160000
      3.12160000        9.36480000        3.12160000
      6.24320000        9.36480000        3.12160000
      9.36480000        9.36480000        3.12160000
     12.48640000        9.36480000        3.12160000
     15.60800000        9.36480000        3.12160000
     18.72960000        9.36480000        3.12160000
     21.85120000        9.36480000        3.12160000
     24.97280000        9.36480000        3.12160000
     28.09440000        9.36480000        3.12160000
     31.21600000        9.36480000        3.12160000
     34.33760000        9.36480000        3.12160000
     37.45920000        9.36480000        3.12160000
     40.58080000        9.36480000        3.12160000
     43.70240000        9.36480000        3.12160000
     46.82400000        9.36480000        3.12160000
     49.94560000        9.36480000        3.12160000
     53.06720000        9.36480000        3.12160000
     56.18880000        9.36480000        3.12160000
     59.31040000        9.36480000        3.12160000
      0.00000000       12.48640000        3.12160000
      3.12160000       12.48640000        3.12160000
      6.24320000       12.48640000        3.12160000
      9.36480000       12.48640000        3.12160000
     12.48640000       12.48640000        3.12160000
     15.60800000       12.48640000        3.12160000
     18.72960000       12.48640000        3.12160000
     21.85120000       12.48640000        3.12160000
     24.97280000       12.48640000        3.12160000
     28.09440000       12.48640000        3.12160000
     31.21600000       12.48640000        3.12160000
     34.33760000       12.48640000        3.12160000
     37.45920000       12.48640000        3.12160000
     40.58080000       12.48640000        3.12160000
     43.70240000       12.48640000        3.12160000
     46.82400000       12.48640000        3.12160000
     49.94560000       12.48640000        3.12160000
     53.06720000       12.48640000        3.12160000
     56.18880000       12.48640000        3.12160000
     59.31040000       12.48640000        3.12160000
      0.00000000       15.60800000        3.12160000
      3.12160000       15.60800000        3.12160000
      6.24320000       15.60800000        3.12160000
      9.36480000       15.60800000        3.12160000
     12.48640000       15.60800000        3.12160000
     15.60800000       15.60800000        3.12160000
     18.72960000       15.60800000        3.12160000
     21.85120000       15.60800000        3.12160000
     24.97280000       15.60800000        3.12160000
     28.09440000       15.60800000        3.12160000
     31.21600000       15.60800000        3.12160000
     34.33760000       15.60800000        3.12160000
     37.45920000       15.60800000        3.12160000
     40.58080000       15.60800000        3.12160000
     43.70240000       15.60800000        3.12160000
     46.82400000       15.60800000        3.12160000
     49.94560000       15.60800000        3.12160000
     53.06720000       15.60800000        3.12160000
     56.18880000       15.60800000        3.12160000
     59.31040000       15.60800000        3.12160000
      0.00000000       18.72960000        3.12160000
      3.12160000       18.72960000        3.12160000
      6.24320000       18.72960000        3.12160000
      9.36480000       18.72960000        3.12160000
     12.48640000       18.72960000        3.12160000
     15.60800000       18.72960000        3.12160000
     18.72960000       18.72960000        3.12160000
     21.85120000       18.72960000        3.12160000
     24.97280000       18.72960000        3.12160000
     28.09440000       18.72960000        3.12160000
     31.21600000       18.72960000        3.12160000
     34.33760000       18.72960000        3.12160000
     37.45920000       18.72960000        3.12160000
     40.58080000       18.72960000        3.12160000
     43.70240000       18.72960000        3.12160000
     46.82400000       18.72960000        3.12160000
     49.94560000       18.72960000        3.12160000
     53.06720000       18.72960000        3.12160000
     56.18880000       18.72960000        3.12160000
     59.31040000       18.72960000        3.12160000
      0.00000000       21.85120000        3.12160000
      3.12160000       21.85120000        3.12160000
      6.24320000       21.85120000        3.12160000
      9.36480000       21.85120000        3.12160000
     12.48640000       21.85120000        3.12160000
     15.60800000       21.85120000        3.12160000
     18.72960000       21.85120000        3.12160000
     21.85120000       21.85120000        3.12160000
     24.97280000       21.85120000        3.12160000
     28.09440000       21.85120000        3.12160000
     31.21600000       21.85120000        3.12160000
     34.33760000       21.85120000        3.12160000
     37.45920000       21.85120000        3.12160000
     40.58080000       21.85120000        3.12160000
     43.70240000       21.85120000        3.12160000
     46.82400000       21.85120000        3.12160000
     49.94560000       21.85120000        3.12160000
     53.06720000       21.85120000        3.12160000
     56.18880000       21.85120000        3.12160000
     59.31040000       21.85120000        3.12160000
      0.00000000       24.97280000        3.12160000
      3.12160000       24.97280000        3.12160000
      6.24320000       24.97280000        3.12160000
      9.36480000       24.97280000        3.12160000
     12.48640000       24.97280000        3.12160000
     15.60800000       24.97280000        3.12160000
     18.72960000       24.97280000        3.12160000
     21.85120000       24.97280000        3.12160000
     24.97280000       24.97280000        3.12160000
     28.09440000       24.97280000        3.12160000
     31.21600000       24.97280000        3.12160000
     34.33760000       24.97280000        3.12160000
     37.45920000       24.97280000        3.12160000
     40.58080000       24.97280000        3.12160000
     43.70240000       24.97280000        3.12160000
     46.82400000       24.97280000        3.12160000
     49.94560000       24.97280000        3.12160000
     53.06720000       24.97280000        3.12160000
     56.18880000       24.97280000        3.12160000
     59.31040000       24.97280000        3.12160000
      0.00000000       28.09440000        3.12160000
      3.12160000       28.09440000        3.12160000
      6.24320000       28.09440000        3.12160000
      9.36480000       28.09440000        3.12160000
     12.48640000       28.09440000        3.12160000
     15.60800000       28.09440000        3.12160000
     18.72960000       28.09440000        3.12160000
     21.85120000       28.09440000        3.12160000
     24.97280000       28.09440000        3.12160000
     28.09440000       28.09440000        3.12160000
     31.21600000       28.09440000        3.12160000
     34.33760000       28.09440000        3.12160000
     37.45920000       28.09440000        3.12160000
     40.58080000       28.09440000        3.12160000
     43.70240000       28.09440000        3.12160000
     46.82400000       28.09440000        3.12160000
     49.94560000       28.09440000        3.12160000
     53.06720000       28.09440000        3.12160000
     56.18880000       28.09440000        3.12160000
     59.31040000       28.09440000        3.12160000
      0.00000000        0.00000000        6.24320000
      3.12160000        0.00000000        6.24320000
      6.24320000        0.00000000        6.24320000
      9.36480000        0.00000000        6.24320000
     12.48640000        0.00000000        6.24320000
     15.60800000        0.00000000        6.24320000
     18.72960000        0.00000000        6.24320000
     21.85120000        0.00000000        6.24320000
     24.97280000        0.00000000        6.24320000
     28.09440000        0.00000000        6.24320000
     31.21600000        0.00000000        6.24320000
     34.33760000        0.00000000        6.24320000
     37.45920000        0.00000000        6.24320000
     40.58080000        0.00000000        6.24320000
     43.70240000        0.00000000        6.24320000
     46.82400000        0.00000000        6.24320000
     49.94560000        0.00000000        6.24320000
     53.06720000        0.00000000        6.24320000
     56.18880000        0.00000000        6.24320000
     59.31040000        0.00000000        6.24320000
      0.00000000        3.12160000        6.24320000
      3.12160000        3.12160000        6.24320000
      6.24320000        3.12160000        6.24320000
      9.36480000        3.12160000        6.24320000
     12.48640000        3.12160000        6.24320000
     15.60800000        3.12160000        6.24320000
     18.72960000        3.12160000        6.24320000
     21.85120000        3.12160000        6.24320000
     24.97280000        3.12160000        6.24320000
     28.09440000        3.12160000        6.24320000
     31.21600000        3.12160000        6.24320000
     34.33760000        3.12160000        6.24320000
     37.45920000        3.12160000        6.24320000
     40.58080000        3.12160000        6.24320000
     43.70240000        3.12160000        6.24320000
     46.82400000        3.12160000        6.24320000
     49.94560000        3.12160000        6.24320000
     53.06720000        3.12160000        6.24320000
     56.18880000        3.12160000        6.24320000
     59.31040000        3.12160000        6.24320000
      0.00000000        6.24320000        6.24320000
      3.12160000        6.24320000        6.24320000
      6.24320000        6.24320000        6.24320000
      9.36480000        6.24320000        6.24320000
     12.48640000        6.24320000        6.24320000
     15.60800000        6.24320000        6.24320000
     18.72960000        6.24320000        6.24320000
     21.85120000        6.24320000        6.24320000
     24.97280000        6.24320000        6.24320000
     28.09440000        6.24320000        6.24320000
     31.21600000        6.24320000        6.24320000
     34.33760000        6.24320000        6.24320000
     37.45920000        6.24320000        6.24320000
     40.58080000        6.24320000        6.24320000
     43.70240000        6.24320000        6.24320000
     46.82400000        6.24320000        6.24320000
     49.94560000        6.24320000        6.24320000
     53.06720000        6.24320000        6.24320000
     56.18880000        6.24320000        6.24320000
     59.31040000        6.24320000        6.24320000
      0.00000000        9.36480000        6.24320000
      3.12160000        9.36480000        6.24320000
      6.24320000        9.36480000        6.24320000
      9.36480000        9.36480000        6.24320000
     12.48640000        9.36480000        6.24320000
     15.60800000        9.36480000        6.24320000
     18.72960000        9.36480000        6.24320000
     21.85120000        9.36480000        6.24320000
     24.97280000        9.36480000        6.24320000
     28.09440000        9.36480000        6.24320000
     31.21600000        9.36480000        6.24320000
     34.33760000        9.36480000        6.24320000
     37.45920000        9.36480000        6.24320000
     40.58080000        9.36480000        6.24320000
     43.70240000        9.36480000        6.24320000
     46.82400000        9.36480000        6.24320000
     49.94560000        9.36480000        6.24320000
     53.06720000        9.36480000        6.24320000
     56.18880000        9.36480000        6.24320000
     59.31040000        9.36480000        6.24320000
      0.00000000       12.48640000        6.24320000
      3.12160000       12.48640000        6.24320000
      6.24320000       12.48640000        6.24320000
      9.36480000       12.48640000        6.24320000
     12.48640000       12.48640000        6.24320000
     15.60800000       12.48640000        6.24320000
     18.72960000       12.48640000        6.24320000
     21.85120000       12.48640000        6.24320000
     24.97280000       12.48640000        6.24320000
     28.09440000       12.48640000        6.24320000
     31.21600000       12.48640000        6.24320000
     34.33760000       12.48640000        6.24320000
     37.45920000       12.48640000        6.24320000
     40.58080000       12.48640000        6.24320000
     43.70240000       12.48640000        6.24320000
     46.82400000       12.48640000        6.24320000
     49.94560000       12.48640000        6.24320000
     53.06720000       12.48640000        6.24320000
     56.18880000       12.48640000        6.24320000
     59.31040000       12.48640000        6.24320000
      0.00000000       15.60800000        6.24320000
      3.12160000       15.60800000        6.24320000
      6.24320000       15.60800000        6.24320000
      9.36480000       15.60800000        6.24320000
     12.48640000       15.60800000        6.24320000
     15.60800000       15.60800000        6.24320000
     18.72960000       15.60800000        6.24320000
     21.85120000       15.60800000        6.24320000
     24.97280000       15.60800000        6.24320000
     28.09440000       15.60800000        6.24320000
     31.21600000       15.60800000        6.24320000
     34.33760000       15.60800000        6.24320000
     37.45920000       15.60800000        6.24320000
     40.58080000       15.60800000        6.24320000
     43.70240000       15.60800000        6.24320000
     46.82400000       15.60800000        6.24320000
     49.94560000       15.60800000        6.24320000
     53.06720000       15.60800000        6.24320000
     56.18880000       15.60800000        6.24320000
     59.31040000       15.60800000        6.24320000
      0.00000000       18.72960000        6.24320000
      3.12160000       18.72960000        6.24320000
      6.24320000       18.72960000        6.24320000
      9.36480000       18.72960000        6.24320000
     12.48640000       18.72960000        6.24320000
     15.60800000       18.72960000        6.24320000
     18.72960000       18.72960000        6.24320000
     21.85120000       18.72960000        6.24320000
     24.97280000       18.72960000        6.24320000
     28.09440000       18.72960000        6.24320000
     31.21600000       18.72960000        6.24320000
     34.33760000       18.72960000        6.24320000
     37.45920000       18.72960000        6.24320000
     40.58080000       18.72960000        6.24320000
     43.70240000       18.72960000        6.24320000
     46.82400000       18.72960000        6.24320000
     49.94560000       18.72960000        6.24320000
     53.06720000       18.72960000        6.24320000
     56.18880000       18.72960000        6.24320000
     59.31040000       18.72960000        6.24320000
      0.00000000       21.85120000        6.24320000
      3.12160000       21.85120000        6.24320000
      6.24320000       21.85120000        6.24320000
      9.36480000       21.85120000        6.24320000
     12.48640000       21.85120000        6.24320000
     15.60800000       21.85120000        6.24320000
     18.72960000       21.85120000        6.24320000
     21.85120000       21.85120000        6.24320000
     24.97280000       21.85120000        6.24320000
     28.09440000       21.85120000        6.24320000
     31.21600000       21.85120000        6.24320000
     34.33760000       21.85120000        6.24320000
     37.45920000       21.85120000        6.24320000
     40.58080000       21.85120000        6.24320000
     43.70240000       21.85120000        6.24320000
     46.82400000       21.85120000        6.24320000
     49.94560000       21.85120000        6.24320000
     53.06720000       21.85120000        6.24320000
     56.18880000       21.85120000        6.24320000
     59.31040000       21.85120000        6.24320000
      0.00000000       24.97280000        6.24320000