# Bcc NiTi alloy oriented X=[100], Y=[010], Z=[001].
1.000000
     56.19600000        0.00000000        0.00000000
      0.00000000       56.19600000        0.00000000
      0.00000000        0.00000000       56.19600000
 Ni  Ti
  5832    5832
Cartesian
      0.00000000        0.00000000        0.00000000
      3.12200000        0.00000000        0.00000000
      6.24400000        0.00000000        0.00000000
      9.36600000        0.00000000        0.00000000
     12.48800000        0.00000000        0.00000000
     15.61000000        0.00000000        0.00000000
     18.73200000        0.00000000        0.00000000
     21.85400000        0.00000000        0.00000000
     24.97600000        0.00000000        0.00000000
     28.09800000        0.00000000        0.00000000
     31.22000000        0.00000000        0.00000000
     34.34200000        0.00000000        0.00000000
     37.46400000        0.00000000        0.00000000
     40.58600000        0.00000000        0.00000000
     43.70800000        0.00000000        0.00000000
     46.83000000        0.00000000        0.00000000
     49.95200000        0.00000000        0.00000000
     53.07400000        0.00000000        0.00000000
      0.00000000        3.12200000        0.00000000
      3.12200000        3.12200000        0.00000000
      6.24400000        3.12200000        0.00000000
      9.36600000        3.12200000        0.00000000
     12.48800000        3.12200000        0.00000000
     15.61000000        3.12200000        0.00000000
     18.73200000        3.12200000        0.00000000
     21.85400000        3.12200000        0.00000000
     24.97600000        3.12200000        0.00000000
     28.09800000        3.12200000        0.00000000
     31.22000000        3.12200000        0.00000000
     34.34200000        3.12200000        0.00000000
     37.46400000        3.12200000        0.00000000
     40.58600000        3.12200000        0.00000000
     43.70800000        3.12200000        0.00000000
     46.83000000        3.12200000        0.00000000
     49.95200000        3.12200000        0.00000000
     53.07400000        3.12200000        0.00000000
      0.00000000        6.24400000        0.00000000
      3.12200000        6.24400000        0.00000000
      6.24400000        6.24400000        0.00000000
      9.36600000        6.24400000        0.00000000
     12.48800000        6.24400000        0.00000000
     15.61000000        6.24400000        0.00000000
     18.73200000        6.24400000        0.00000000
     21.85400000        6.24400000        0.00000000
     24.97600000        6.24400000        0.00000000
     28.09800000        6.24400000        0.00000000
     31.22000000        6.24400000        0.00000000
     34.34200000        6.24400000        0.00000000
     37.46400000        6.24400000        0.00000000
     40.58600000        6.24400000        0.00000000
     43.70800000        6.24400000        0.00000000
     46.83000000        6.24400000        0.00000000
     49.95200000        6.24400000        0.00000000
     53.07400000        6.24400000        0.00000000
      0.00000000        9.36600000        0.00000000
      3.12200000        9.36600000        0.00000000
      6.24400000        9.36600000        0.00000000
      9.36600000        9.36600000        0.00000000
     12.48800000        9.36600000        0.00000000
     15.61000000        9.36600000        0.00000000
     18.73200000        9.36600000        0.00000000
     21.85400000        9.36600000        0.00000000
     24.97600000        9.36600000        0.00000000
     28.09800000        9.36600000        0.00000000
     31.22000000        9.36600000        0.00000000
     34.34200000        9.36600000        0.00000000
     37.46400000        9.36600000        0.00000000
     40.58600000        9.36600000        0.00000000
     43.70800000        9.36600000        0.00000000
     46.83000000        9.36600000        0.00000000
     49.95200000        9.36600000        0.00000000
     53.07400000        9.36600000        0.00000000
      0.00000000       12.48800000        0.00000000
      3.12200000       12.48800000        0.00000000
      6.24400000       12.48800000        0.00000000
      9.36600000       12.48800000        0.00000000
     12.48800000       12.48800000        0.00000000
     15.61000000       12.48800000        0.00000000
     18.73200000       12.48800000        0.00000000
     21.85400000       12.48800000        0.00000000
     24.97600000       12.48800000        0.00000000
     28.09800000       12.48800000        0.00000000
     31.22000000       12.48800000        0.00000000
     34.34200000       12.48800000        0.00000000
     37.46400000       12.48800000        0.00000000
     40.58600000       12.48800000        0.00000000
     43.70800000       12.48800000        0.00000000
     46.83000000       12.48800000        0.00000000
     49.95200000       12.48800000        0.00000000
     53.07400000       12.48800000        0.00000000
      0.00000000       15.61000000        0.00000000
      3.12200000       15.61000000        0.00000000
      6.24400000       15.61000000        0.00000000
      9.36600000       15.61000000        0.00000000
     12.48800000       15.61000000        0.00000000
     15.61000000       15.61000000        0.00000000
     18.73200000       15.61000000        0.00000000
     21.85400000       15.61000000        0.00000000
     24.97600000       15.61000000        0.00000000
     28.09800000       15.61000000        0.00000000
     31.22000000       15.61000000        0.00000000
     34.34200000       15.61000000        0.00000000
     37.46400000       15.61000000        0.00000000
     40.58600000       15.61000000        0.00000000
     43.70800000       15.61000000        0.00000000
     46.83000000       15.61000000        0.00000000
     49.95200000       15.61000000        0.00000000
     53.07400000       15.61000000        0.00000000
      0.00000000       18.73200000        0.00000000
      3.12200000       18.73200000        0.00000000
      6.24400000       18.73200000        0.00000000
      9.36600000       18.73200000        0.00000000
     12.48800000       18.73200000        0.00000000
     15.61000000       18.73200000        0.00000000
     18.73200000       18.73200000        0.00000000
     21.85400000       18.73200000        0.00000000
     24.97600000       18.73200000        0.00000000
     28.09800000       18.73200000        0.00000000
     31.22000000       18.73200000        0.00000000
     34.34200000       18.73200000        0.00000000
     37.46400000       18.73200000        0.00000000
     40.58600000       18.73200000        0.00000000
     43.70800000       18.73200000        0.00000000
     46.83000000       18.73200000        0.00000000
     49.95200000       18.73200000        0.00000000
     53.07400000       18.73200000        0.00000000
      0.00000000       21.85400000        0.00000000
      3.12200000       21.85400000        0.00000000
      6.24400000       21.85400000        0.00000000
      9.36600000       21.85400000        0.00000000
     12.48800000       21.85400000        0.00000000
     15.61000000       21.85400000        0.00000000
     18.73200000       21.85400000        0.00000000
     21.85400000       21.85400000        0.00000000
     24.97600000       21.85400000        0.00000000
     28.09800000       21.85400000        0.00000000
     31.22000000       21.85400000        0.00000000
     34.34200000       21.85400000        0.00000000
     37.46400000       21.85400000        0.00000000
     40.58600000       21.85400000        0.00000000
     43.70800000       21.85400000        0.00000000
     46.83000000       21.85400000        0.00000000
     49.95200000       21.85400000        0.00000000
     53.07400000       21.85400000        0.00000000
      0.00000000       24.97600000        0.00000000
      3.12200000       24.97600000        0.00000000
      6.24400000       24.97600000        0.00000000
      9.36600000       24.97600000        0.00000000
     12.48800000       24.97600000        0.00000000
     15.61000000       24.97600000        0.00000000
     18.73200000       24.97600000        0.00000000
     21.85400000       24.97600000        0.00000000
     24.97600000       24.97600000        0.00000000
     28.09800000       24.97600000        0.00000000
     31.22000000       24.97600000        0.00000000
     34.34200000       24.97600000        0.00000000
     37.46400000       24.97600000        0.00000000
     40.58600000       24.97600000        0.00000000
     43.70800000       24.97600000        0.00000000
     46.83000000       24.97600000        0.00000000
     49.95200000       24.97600000        0.00000000
     53.07400000       24.97600000        0.00000000
      0.00000000       28.09800000        0.00000000
      3.12200000       28.09800000        0.00000000
      6.24400000       28.09800000        0.00000000
      9.36600000       28.09800000        0.00000000
     12.48800000       28.09800000        0.00000000
     15.61000000       28.09800000        0.00000000
     18.73200000       28.09800000        0.00000000
     21.85400000       28.09800000        0.00000000
     24.97600000       28.09800000        0.00000000
     28.09800000       28.09800000        0.00000000
     31.22000000       28.09800000        0.00000000
     34.34200000       28.09800000        0.00000000
     37.46400000       28.09800000        0.00000000
     40.58600000       28.09800000        0.00000000
     43.70800000       28.09800000        0.00000000
     46.83000000       28.09800000        0.00000000
     49.95200000       28.09800000        0.00000000
     53.07400000       28.09800000        0.00000000
      0.00000000       31.22000000        0.00000000
      3.12200000       31.22000000        0.00000000
      6.24400000       31.22000000        0.00000000
      9.36600000       31.22000000        0.00000000
     12.48800000       31.22000000        0.00000000
     15.61000000       31.22000000        0.00000000
     18.73200000       31.22000000        0.00000000
     21.85400000       31.22000000        0.00000000
     24.97600000       31.22000000        0.00000000
     28.09800000       31.22000000        0.00000000
     31.22000000       31.22000000        0.00000000
     34.34200000       31.22000000        0.00000000
     37.46400000       31.22000000        0.00000000
     40.58600000       31.22000000        0.00000000
     43.70800000       31.22000000        0.00000000
     46.83000000       31.22000000        0.00000000
     49.95200000       31.22000000        0.00000000
     53.07400000       31.22000000        0.00000000
      0.00000000       34.34200000        0.00000000
      3.12200000       34.34200000        0.00000000
      6.24400000       34.34200000        0.00000000
      9.36600000       34.34200000        0.00000000
     12.48800000       34.34200000        0.00000000
     15.61000000       34.34200000        0.00000000
     18.73200000       34.34200000        0.00000000
     21.85400000       34.34200000        0.00000000
     24.97600000       34.34200000        0.00000000
     28.09800000       34.34200000        0.00000000
     31.22000000       34.34200000        0.00000000
     34.34200000       34.34200000        0.00000000
     37.46400000       34.34200000        0.00000000
     40.58600000       34.34200000        0.00000000
     43.70800000       34.34200000        0.00000000
     46.83000000       34.34200000        0.00000000
     49.95200000       34.34200000        0.00000000
     53.07400000       34.34200000        0.00000000
      0.00000000       37.46400000        0.00000000
      3.12200000       37.46400000        0.00000000
      6.24400000       37.46400000        0.00000000
      9.36600000       37.46400000        0.00000000
     12.48800000       37.46400000        0.00000000
     15.61000000       37.46400000        0.00000000
     18.73200000       37.46400000        0.00000000
     21.85400000       37.46400000        0.00000000
     24.97600000       37.46400000        0.00000000
     28.09800000       37.46400000        0.00000000
     31.22000000       37.46400000        0.00000000
     34.34200000       37.46400000        0.00000000
     37.46400000       37.46400000        0.00000000
     40.58600000       37.46400000        0.00000000
     43.70800000       37.46400000        0.00000000
     46.83000000       37.46400000        0.00000000
     49.95200000       37.46400000        0.00000000
     53.07400000       37.46400000        0.00000000
      0.00000000       40.58600000        0.00000000
      3.12200000       40.58600000        0.00000000
      6.24400000       40.58600000        0.00000000
      9.36600000       40.58600000        0.00000000
     12.48800000       40.58600000        0.00000000
     15.61000000       40.58600000        0.00000000
     18.73200000       40.58600000        0.00000000
     21.85400000       40.58600000        0.00000000
     24.97600000       40.58600000        0.00000000
     28.09800000       40.58600000        0.00000000
     31.22000000       40.58600000        0.00000000
     34.34200000       40.58600000        0.00000000
     37.46400000       40.58600000        0.00000000
     40.58600000       40.58600000        0.00000000
     43.70800000       40.58600000        0.00000000
     46.83000000       40.58600000        0.00000000
     49.95200000       40.58600000        0.00000000
     53.07400000       40.58600000        0.00000000
      0.00000000       43.70800000        0.00000000
      3.12200000       43.70800000        0.00000000
      6.24400000       43.70800000        0.00000000
      9.36600000       43.70800000        0.00000000
     12.48800000       43.70800000        0.00000000
     15.61000000       43.70800000        0.00000000
     18.73200000       43.70800000        0.00000000
     21.85400000       43.70800000        0.00000000
     24.97600000       43.70800000        0.00000000
     28.09800000       43.70800000        0.00000000
     31.22000000       43.70800000        0.00000000
     34.34200000       43.70800000        0.00000000
     37.46400000       43.70800000        0.00000000
     40.58600000       43.70800000        0.00000000
     43.70800000       43.70800000        0.00000000
     46.83000000       43.70800000        0.00000000
     49.95200000       43.70800000        0.00000000
     53.07400000       43.70800000        0.00000000
      0.00000000       46.83000000        0.00000000
      3.12200000       46.83000000        0.00000000
      6.24400000       46.83000000        0.00000000
      9.36600000       46.83000000        0.00000000
     12.48800000       46.83000000        0.00000000
     15.61000000       46.83000000        0.00000000
     18.73200000       46.83000000        0.00000000
     21.85400000       46.83000000        0.00000000
     24.97600000       46.83000000        0.00000000
     28.09800000       46.83000000        0.00000000
     31.22000000       46.83000000        0.00000000
     34.34200000       46.83000000        0.00000000
     37.46400000       46.83000000        0.00000000
     40.58600000       46.83000000        0.00000000
     43.70800000       46.83000000        0.00000000
     46.83000000       46.83000000        0.00000000
     49.95200000       46.83000000        0.00000000
     53.07400000       46.83000000        0.00000000
      0.00000000       49.95200000        0.00000000
      3.12200000       49.95200000        0.00000000
      6.24400000       49.95200000        0.00000000
      9.36600000       49.95200000        0.00000000
     12.48800000       49.95200000        0.00000000
     15.61000000       49.95200000        0.00000000
     18.73200000       49.95200000        0.00000000
     21.85400000       49.95200000        0.00000000
     24.97600000       49.95200000        0.00000000
     28.09800000       49.95200000        0.00000000
     31.22000000       49.95200000        0.00000000
     34.34200000       49.95200000        0.00000000
     37.46400000       49.95200000        0.00000000
     40.58600000       49.95200000        0.00000000
     43.70800000       49.95200000        0.00000000
     46.83000000       49.95200000        0.00000000
     49.95200000       49.95200000        0.00000000
     53.07400000       49.95200000        0.00000000
      0.00000000       53.07400000        0.00000000
      3.12200000       53.07400000        0.00000000
      6.24400000       53.07400000        0.00000000
      9.36600000       53.07400000        0.00000000
     12.48800000       53.07400000        0.00000000
     15.61000000       53.07400000        0.00000000
     18.73200000       53.07400000        0.00000000
     21.85400000       53.07400000        0.00000000
     24.97600000       53.07400000        0.00000000
     28.09800000       53.07400000        0.00000000
     31.22000000       53.07400000        0.00000000
     34.34200000       53.07400000        0.00000000
     37.46400000       53.07400000        0.00000000
     40.58600000       53.07400000        0.00000000
     43.70800000       53.07400000        0.00000000
     46.83000000       53.07400000        0.00000000
     49.95200000       53.07400000        0.00000000
     53.07400000       53.07400000        0.00000000
      0.00000000        0.00000000        3.12200000
      3.12200000        0.00000000        3.12200000
      6.24400000        0.00000000        3.12200000
      9.36600000        0.00000000        3.12200000
     12.48800000        0.00000000        3.12200000
     15.61000000        0.00000000        3.12200000
     18.73200000        0.00000000        3.12200000
     21.85400000        0.00000000        3.12200000
     24.97600000        0.00000000        3.12200000
     28.09800000        0.00000000        3.12200000
     31.22000000        0.00000000        3.12200000
     34.34200000        0.00000000        3.12200000
     37.46400000        0.00000000        3.12200000
     40.58600000        0.00000000        3.12200000
     43.70800000        0.00000000        3.12200000
     46.83000000        0.00000000        3.12200000
     49.95200000        0.00000000        3.12200000
     53.07400000        0.00000000        3.12200000
      0.00000000        3.12200000        3.12200000
      3.12200000        3.12200000        3.12200000
      6.24400000        3.12200000        3.12200000
      9.36600000        3.12200000        3.12200000
     12.48800000        3.12200000        3.12200000
     15.61000000        3.12200000        3.12200000
     18.73200000        3.12200000        3.12200000
     21.85400000        3.12200000        3.12200000
     24.97600000        3.12200000        3.12200000
     28.09800000        3.12200000        3.12200000
     31.22000000        3.12200000        3.12200000
     34.34200000        3.12200000        3.12200000
     37.46400000        3.12200000        3.12200000
     40.58600000        3.12200000        3.12200000
     43.70800000        3.12200000        3.12200000
     46.83000000        3.12200000        3.12200000
     49.95200000        3.12200000        3.12200000
     53.07400000        3.12200000        3.12200000
      0.00000000        6.24400000        3.12200000
      3.12200000        6.24400000        3.12200000
      6.24400000        6.24400000        3.12200000
      9.36600000        6.24400000        3.12200000
     12.48800000        6.24400000        3.12200000
     15.61000000        6.24400000        3.12200000
     18.73200000        6.24400000        3.12200000
     21.85400000        6.24400000        3.12200000
     24.97600000        6.24400000        3.12200000
     28.09800000        6.24400000        3.12200000
     31.22000000        6.24400000        3.12200000
     34.34200000        6.24400000        3.12200000
     37.46400000        6.24400000        3.12200000
     40.58600000        6.24400000        3.12200000
     43.70800000        6.24400000        3.12200000
     46.83000000        6.24400000        3.12200000
     49.95200000        6.24400000        3.12200000
     53.07400000        6.24400000        3.12200000
      0.00000000        9.36600000        3.12200000
      3.12200000        9.36600000        3.12200000
      6.24400000        9.36600000        3.12200000
      9.36600000        9.36600000        3.12200000
     12.48800000        9.36600000        3.12200000
     15.61000000        9.36600000        3.12200000
     18.73200000        9.36600000        3.12200000
     21.85400000        9.36600000        3.12200000
     24.97600000        9.36600000        3.12200000
     28.09800000        9.36600000        3.12200000
     31.22000000        9.36600000        3.12200000
     34.34200000        9.36600000        3.12200000
     37.46400000        9.36600000        3.12200000
     40.58600000        9.36600000        3.12200000
     43.70800000        9.36600000        3.12200000
     46.83000000        9.36600000        3.12200000
     49.95200000        9.36600000        3.12200000
     53.07400000        9.36600000        3.12200000
      0.00000000       12.48800000        3.12200000
      3.12200000       12.48800000        3.12200000
      6.24400000       12.48800000        3.12200000
      9.36600000       12.48800000        3.12200000
     12.48800000       12.48800000        3.12200000
     15.61000000       12.48800000        3.12200000
     18.73200000       12.48800000        3.12200000
     21.85400000       12.48800000        3.12200000
     24.97600000       12.48800000        3.12200000
     28.09800000       12.48800000        3.12200000
     31.22000000       12.48800000        3.12200000
     34.34200000       12.48800000        3.12200000
     37.46400000       12.48800000        3.12200000
     40.58600000       12.48800000        3.12200000
     43.70800000       12.48800000        3.12200000
     46.83000000       12.48800000        3.12200000
     49.95200000       12.48800000        3.12200000
     53.07400000       12.48800000        3.12200000
      0.00000000       15.61000000        3.12200000
      3.12200000       15.61000000        3.12200000
      6.24400000       15.61000000        3.12200000
      9.36600000       15.61000000        3.12200000
     12.48800000       15.61000000        3.12200000
     15.61000000       15.61000000        3.12200000
     18.73200000       15.61000000        3.12200000
     21.85400000       15.61000000        3.12200000
     24.97600000       15.61000000        3.12200000
     28.09800000       15.61000000        3.12200000
     31.22000000       15.61000000        3.12200000
     34.34200000       15.61000000        3.12200000
     37.46400000       15.61000000        3.12200000
     40.58600000       15.61000000        3.12200000
     43.70800000       15.61000000        3.12200000
     46.83000000       15.61000000        3.12200000
     49.95200000       15.61000000        3.12200000
     53.07400000       15.61000000        3.12200000
      0.00000000       18.73200000        3.12200000
      3.12200000       18.73200000        3.12200000
      6.24400000       18.73200000        3.12200000
      9.36600000       18.73200000        3.12200000
     12.48800000       18.73200000        3.12200000
     15.61000000       18.73200000        3.12200000
     18.73200000       18.73200000        3.12200000
     21.85400000       18.73200000        3.12200000
     24.97600000       18.73200000        3.12200000
     28.09800000       18.73200000        3.12200000
     31.22000000       18.73200000        3.12200000
     34.34200000       18.73200000        3.12200000
     37.46400000       18.73200000        3.12200000
     40.58600000       18.73200000        3.12200000
     43.70800000       18.73200000        3.12200000
     46.83000000       18.73200000        3.12200000
     49.95200000       18.73200000        3.12200000
     53.07400000       18.73200000        3.12200000
      0.00000000       21.85400000        3.12200000
      3.12200000       21.85400000        3.12200000
      6.24400000       21.85400000        3.12200000
      9.36600000       21.85400000        3.12200000
     12.48800000       21.85400000        3.12200000
     15.61000000       21.85400000        3.12200000
     18.73200000       21.85400000        3.12200000
     21.85400000       21.85400000        3.12200000
     24.97600000       21.85400000        3.12200000
     28.09800000       21.85400000        3.12200000
     31.22000000       21.85400000        3.12200000
     34.34200000       21.85400000        3.12200000
     37.46400000       21.85400000        3.12200000
     40.58600000       21.85400000        3.12200000
     43.70800000       21.85400000        3.12200000
     46.83000000       21.85400000        3.12200000
     49.95200000       21.85400000        3.12200000
     53.07400000       21.85400000        3.12200000
      0.00000000       24.97600000        3.12200000
      3.12200000       24.97600000        3.12200000
      6.24400000       24.97600000        3.12200000
      9.36600000       24.97600000        3.12200000
     12.48800000       24.97600000        3.12200000
     15.61000000       24.97600000        3.12200000
     18.73200000       24.97600000        3.12200000
     21.85400000       24.97600000        3.12200000
     24.97600000       24.97600000        3.12200000
     28.09800000       24.97600000        3.12200000
     31.22000000       24.97600000        3.12200000
     34.34200000       24.97600000        3.12200000
     37.46400000       24.97600000        3.12200000
     40.58600000       24.97600000        3.12200000
     43.70800000       24.97600000        3.12200000
     46.83000000       24.97600000        3.12200000
     49.95200000       24.97600000        3.12200000
     53.07400000       24.97600000        3.12200000
      0.00000000       28.09800000        3.12200000
      3.12200000       28.09800000        3.12200000
      6.24400000       28.09800000        3.12200000
      9.36600000       28.09800000        3.12200000
     12.48800000       28.09800000        3.12200000
     15.61000000       28.09800000        3.12200000
     18.73200000       28.09800000        3.12200000
     21.85400000       28.09800000        3.12200000
     24.97600000       28.09800000        3.12200000
     28.09800000       28.09800000        3.12200000
     31.22000000       28.09800000        3.12200000
     34.34200000       28.09800000        3.12200000
     37.46400000       28.09800000        3.12200000
     40.58600000       28.09800000        3.12200000
     43.70800000       28.09800000        3.12200000
     46.83000000       28.09800000        3.12200000
     49.95200000       28.09800000        3.12200000
     53.07400000       28.09800000        3.12200000
      0.00000000       31.22000000        3.12200000
      3.12200000       31.22000000        3.12200000
      6.24400000       31.22000000        3.12200000
      9.36600000       31.22000000        3.12200000
     12.48800000       31.22000000        3.12200000
     15.61000000       31.22000000        3.12200000
     18.73200000       31.22000000        3.12200000
     21.85400000       31.22000000        3.12200000
     24.97600000       31.22000000        3.12200000
     28.09800000       31.22000000        3.12200000
     31.22000000       31.22000000        3.12200000
     34.34200000       31.22000000        3.12200000
     37.46400000       31.22000000        3.12200000
     40.58600000       31.22000000        3.12200000
     43.70800000       31.22000000        3.12200000
     46.83000000       31.22000000        3.12200000
     49.95200000       31.22000000        3.12200000
     53.07400000       31.22000000        3.12200000
      0.00000000       34.34200000        3.12200000
      3.12200000       34.34200000        3.12200000
      6.24400000       34.34200000        3.12200000
      9.36600000       34.34200000        3.12200000
     12.48800000       34.34200000        3.12200000
     15.61000000       34.34200000        3.12200000
     18.73200000       34.34200000        3.12200000
     21.85400000       34.34200000        3.12200000
     24.97600000       34.34200000        3.12200000
     28.09800000       34.34200000        3.12200000
     31.22000000       34.34200000        3.12200000
     34.34200000       34.34200000        3.12200000
     37.46400000       34.34200000        3.12200000
     40.58600000       34.34200000        3.12200000
     43.70800000       34.34200000        3.12200000
     46.83000000       34.34200000        3.12200000
     49.95200000       34.34200000        3.12200000
     53.07400000       34.34200000        3.12200000
      0.00000000       37.46400000        3.12200000
      3.12200000       37.46400000        3.12200000
      6.24400000       37.46400000        3.12200000
      9.36600000       37.46400000        3.12200000
     12.48800000       37.46400000        3.12200000
     15.61000000       37.46400000        3.12200000
     18.73200000       37.46400000        3.12200000
     21.85400000       37.46400000        3.12200000
     24.97600000       37.46400000        3.12200000
     28.09800000       37.46400000        3.12200000
     31.22000000       37.46400000        3.12200000
     34.34200000       37.46400000        3.12200000
     37.46400000       37.46400000        3.12200000
     40.58600000       37.46400000        3.12200000
     43.70800000       37.46400000        3.12200000
     46.83000000       37.46400000        3.12200000
     49.95200000       37.46400000        3.12200000
     53.07400000       37.46400000        3.12200000
      0.00000000       40.58600000        3.12200000
      3.12200000       40.58600000        3.12200000
      6.24400000       40.58600000        3.12200000