# Bcc NiTi alloy oriented X=[100], Y=[010], Z=[001].
1.000000
     46.92000000        0.00000000        0.00000000
      0.00000000       46.92000000        0.00000000
      0.00000000        0.00000000       46.92000000
 Ni  Ti
  3375    3375
Cartesian
      0.00000000        0.00000000        0.00000000
      3.12800000        0.00000000        0.00000000
      6.25600000        0.00000000        0.00000000
      9.38400000        0.00000000        0.00000000
     12.51200000        0.00000000        0.00000000
     15.64000000        0.00000000        0.00000000
     18.76800000        0.00000000        0.00000000
     21.89600000        0.00000000        0.00000000
     25.02400000        0.00000000        0.00000000
     28.15200000        0.00000000        0.00000000
     31.28000000        0.00000000        0.00000000
     34.40800000        0.00000000        0.00000000
     37.53600000        0.00000000        0.00000000
     40.66400000        0.00000000        0.00000000
     43.79200000        0.00000000        0.00000000
      0.00000000        3.12800000        0.00000000
      3.12800000        3.12800000        0.00000000
      6.25600000        3.12800000        0.00000000
      9.38400000        3.12800000        0.00000000
     12.51200000        3.12800000        0.00000000
     15.64000000        3.12800000        0.00000000
     18.76800000        3.12800000        0.00000000
     21.89600000        3.12800000        0.00000000
     25.02400000        3.12800000        0.00000000
     28.15200000        3.12800000        0.00000000
     31.28000000        3.12800000        0.00000000
     34.40800000        3.12800000        0.00000000
     37.53600000        3.12800000        0.00000000
     40.66400000        3.12800000        0.00000000
     43.79200000        3.12800000        0.00000000
      0.00000000        6.25600000        0.00000000
      3.12800000        6.25600000        0.00000000
      6.25600000        6.25600000        0.00000000
      9.38400000        6.25600000        0.00000000
     12.51200000        6.25600000        0.00000000
     15.64000000        6.25600000        0.00000000
     18.76800000        6.25600000        0.00000000
     21.89600000        6.25600000        0.00000000
     25.02400000        6.25600000        0.00000000
     28.15200000        6.25600000        0.00000000
     31.28000000        6.25600000        0.00000000
     34.40800000        6.25600000        0.00000000
     37.53600000        6.25600000        0.00000000
     40.66400000        6.25600000        0.00000000
     43.79200000        6.25600000        0.00000000
      0.00000000        9.38400000        0.00000000
      3.12800000        9.38400000        0.00000000
      6.25600000        9.38400000        0.00000000
      9.38400000        9.38400000        0.00000000
     12.51200000        9.38400000        0.00000000
     15.64000000        9.38400000        0.00000000
     18.76800000        9.38400000        0.00000000
     21.89600000        9.38400000        0.00000000
     25.02400000        9.38400000        0.00000000
     28.15200000        9.38400000        0.00000000
     31.28000000        9.38400000        0.00000000
     34.40800000        9.38400000        0.00000000
     37.53600000        9.38400000        0.00000000
     40.66400000        9.38400000        0.00000000
     43.79200000        9.38400000        0.00000000
      0.00000000       12.51200000        0.00000000
      3.12800000       12.51200000        0.00000000
      6.25600000       12.51200000        0.00000000
      9.38400000       12.51200000        0.00000000
     12.51200000       12.51200000        0.00000000
     15.64000000       12.51200000        0.00000000
     18.76800000       12.51200000        0.00000000
     21.89600000       12.51200000        0.00000000
     25.02400000       12.51200000        0.00000000
     28.15200000       12.51200000        0.00000000
     31.28000000       12.51200000        0.00000000
     34.40800000       12.51200000        0.00000000
     37.53600000       12.51200000        0.00000000
     40.66400000       12.51200000        0.00000000
     43.79200000       12.51200000        0.00000000
      0.00000000       15.64000000        0.00000000
      3.12800000       15.64000000        0.00000000
      6.25600000       15.64000000        0.00000000
      9.38400000       15.64000000        0.00000000
     12.51200000       15.64000000        0.00000000
     15.64000000       15.64000000        0.00000000
     18.76800000       15.64000000        0.00000000
     21.89600000       15.64000000        0.00000000
     25.02400000       15.64000000        0.00000000
     28.15200000       15.64000000        0.00000000
     31.28000000       15.64000000        0.00000000
     34.40800000       15.64000000        0.00000000
     37.53600000       15.64000000        0.00000000
     40.66400000       15.64000000        0.00000000
     43.79200000       15.64000000        0.00000000
      0.00000000       18.76800000        0.00000000
      3.12800000       18.76800000        0.00000000
      6.25600000       18.76800000        0.00000000
      9.38400000       18.76800000        0.00000000
     12.51200000       18.76800000        0.00000000
     15.64000000       18.76800000        0.00000000
     18.76800000       18.76800000        0.00000000
     21.89600000       18.76800000        0.00000000
     25.02400000       18.76800000        0.00000000
     28.15200000       18.76800000        0.00000000
     31.28000000       18.76800000        0.00000000
     34.40800000       18.76800000        0.00000000
     37.53600000       18.76800000        0.00000000
     40.66400000       18.76800000        0.00000000
     43.79200000       18.76800000        0.00000000
      0.00000000       21.89600000        0.00000000
      3.12800000       21.89600000        0.00000000
      6.25600000       21.89600000        0.00000000
      9.38400000       21.89600000        0.00000000
     12.51200000       21.89600000        0.00000000
     15.64000000       21.89600000        0.00000000
     18.76800000       21.89600000        0.00000000
     21.89600000       21.89600000        0.00000000
     25.02400000       21.89600000        0.00000000
     28.15200000       21.89600000        0.00000000
     31.28000000       21.89600000        0.00000000
     34.40800000       21.89600000        0.00000000
     37.53600000       21.89600000        0.00000000
     40.66400000       21.89600000        0.00000000
     43.79200000       21.89600000        0.00000000
      0.00000000       25.02400000        0.00000000
      3.12800000       25.02400000        0.00000000
      6.25600000       25.02400000        0.00000000
      9.38400000       25.02400000        0.00000000
     12.51200000       25.02400000        0.00000000
     15.64000000       25.02400000        0.00000000
     18.76800000       25.02400000        0.00000000
     21.89600000       25.02400000        0.00000000
     25.02400000       25.02400000        0.00000000
     28.15200000       25.02400000        0.00000000
     31.28000000       25.02400000        0.00000000
     34.40800000       25.02400000        0.00000000
     37.53600000       25.02400000        0.00000000
     40.66400000       25.02400000        0.00000000
     43.79200000       25.02400000        0.00000000
      0.00000000       28.15200000        0.00000000
      3.12800000       28.15200000        0.00000000
      6.25600000       28.15200000        0.00000000
      9.38400000       28.15200000        0.00000000
     12.51200000       28.15200000        0.00000000
     15.64000000       28.15200000        0.00000000
     18.76800000       28.15200000        0.00000000
     21.89600000       28.15200000        0.00000000
     25.02400000       28.15200000        0.00000000
     28.15200000       28.15200000        0.00000000
     31.28000000       28.15200000        0.00000000
     34.40800000       28.15200000        0.00000000
     37.53600000       28.15200000        0.00000000
     40.66400000       28.15200000        0.00000000
     43.79200000       28.15200000        0.00000000
      0.00000000       31.28000000        0.00000000
      3.12800000       31.28000000        0.00000000
      6.25600000       31.28000000        0.00000000
      9.38400000       31.28000000        0.00000000
     12.51200000       31.28000000        0.00000000
     15.64000000       31.28000000        0.00000000
     18.76800000       31.28000000        0.00000000
     21.89600000       31.28000000        0.00000000
     25.02400000       31.28000000        0.00000000
     28.15200000       31.28000000        0.00000000
     31.28000000       31.28000000        0.00000000
     34.40800000       31.28000000        0.00000000
     37.53600000       31.28000000        0.00000000
     40.66400000       31.28000000        0.00000000
     43.79200000       31.28000000        0.00000000
      0.00000000       34.40800000        0.00000000
      3.12800000       34.40800000        0.00000000
      6.25600000       34.40800000        0.00000000
      9.38400000       34.40800000        0.00000000
     12.51200000       34.40800000        0.00000000
     15.64000000       34.40800000        0.00000000
     18.76800000       34.40800000        0.00000000
     21.89600000       34.40800000        0.00000000
     25.02400000       34.40800000        0.00000000
     28.15200000       34.40800000        0.00000000
     31.28000000       34.40800000        0.00000000
     34.40800000       34.40800000        0.00000000
     37.53600000       34.40800000        0.00000000
     40.66400000       34.40800000        0.00000000
     43.79200000       34.40800000        0.00000000
      0.00000000       37.53600000        0.00000000
      3.12800000       37.53600000        0.00000000
      6.25600000       37.53600000        0.00000000
      9.38400000       37.53600000        0.00000000
     12.51200000       37.53600000        0.00000000
     15.64000000       37.53600000        0.00000000
     18.76800000       37.53600000        0.00000000
     21.89600000       37.53600000        0.00000000
     25.02400000       37.53600000        0.00000000
     28.15200000       37.53600000        0.00000000
     31.28000000       37.53600000        0.00000000
     34.40800000       37.53600000        0.00000000
     37.53600000       37.53600000        0.00000000
     40.66400000       37.53600000        0.00000000
     43.79200000       37.53600000        0.00000000
      0.00000000       40.66400000        0.00000000
      3.12800000       40.66400000        0.00000000
      6.25600000       40.66400000        0.00000000
      9.38400000       40.66400000        0.00000000
     12.51200000       40.66400000        0.00000000
     15.64000000       40.66400000        0.00000000
     18.76800000       40.66400000        0.00000000
     21.89600000       40.66400000        0.00000000
     25.02400000       40.66400000        0.00000000
     28.15200000       40.66400000        0.00000000
     31.28000000       40.66400000        0.00000000
     34.40800000       40.66400000        0.00000000
     37.53600000       40.66400000        0.00000000
     40.66400000       40.66400000        0.00000000
     43.79200000       40.66400000        0.00000000
      0.00000000       43.79200000        0.00000000
      3.12800000       43.79200000        0.00000000
      6.25600000       43.79200000        0.00000000
      9.38400000       43.79200000        0.00000000
     12.51200000       43.79200000        0.00000000
     15.64000000       43.79200000        0.00000000
     18.76800000       43.79200000        0.00000000
     21.89600000       43.79200000        0.00000000
     25.02400000       43.79200000        0.00000000
     28.15200000       43.79200000        0.00000000
     31.28000000       43.79200000        0.00000000
     34.40800000       43.79200000        0.00000000
     37.53600000       43.79200000        0.00000000
     40.66400000       43.79200000        0.00000000
     43.79200000       43.79200000        0.00000000
      0.00000000        0.00000000        3.12800000
      3.12800000        0.00000000        3.12800000
      6.25600000        0.00000000        3.12800000
      9.38400000        0.00000000        3.12800000
     12.51200000        0.00000000        3.12800000
     15.64000000        0.00000000        3.12800000
     18.76800000        0.00000000        3.12800000
     21.89600000        0.00000000        3.12800000
     25.02400000        0.00000000        3.12800000
     28.15200000        0.00000000        3.12800000
     31.28000000        0.00000000        3.12800000
     34.40800000        0.00000000        3.12800000
     37.53600000        0.00000000        3.12800000
     40.66400000        0.00000000        3.12800000
     43.79200000        0.00000000        3.12800000
      0.00000000        3.12800000        3.12800000
      3.12800000        3.12800000        3.12800000
      6.25600000        3.12800000        3.12800000
      9.38400000        3.12800000        3.12800000
     12.51200000        3.12800000        3.12800000
     15.64000000        3.12800000        3.12800000
     18.76800000        3.12800000        3.12800000
     21.89600000        3.12800000        3.12800000
     25.02400000        3.12800000        3.12800000
     28.15200000        3.12800000        3.12800000
     31.28000000        3.12800000        3.12800000
     34.40800000        3.12800000        3.12800000
     37.53600000        3.12800000        3.12800000
     40.66400000        3.12800000        3.12800000
     43.79200000        3.12800000        3.12800000
      0.00000000        6.25600000        3.12800000
      3.12800000        6.25600000        3.12800000
      6.25600000        6.25600000        3.12800000
      9.38400000        6.25600000        3.12800000
     12.51200000        6.25600000        3.12800000
     15.64000000        6.25600000        3.12800000
     18.76800000        6.25600000        3.12800000
     21.89600000        6.25600000        3.12800000
     25.02400000        6.25600000        3.12800000
     28.15200000        6.25600000        3.12800000
     31.28000000        6.25600000        3.12800000
     34.40800000        6.25600000        3.12800000
     37.53600000        6.25600000        3.12800000
     40.66400000        6.25600000        3.12800000
     43.79200000        6.25600000        3.12800000
      0.00000000        9.38400000        3.12800000
      3.12800000        9.38400000        3.12800000
      6.25600000        9.38400000        3.12800000
      9.38400000        9.38400000        3.12800000
     12.51200000        9.38400000        3.12800000
     15.64000000        9.38400000        3.12800000
     18.76800000        9.38400000        3.12800000
     21.89600000        9.38400000        3.12800000
     25.02400000        9.38400000        3.12800000
     28.15200000        9.38400000        3.12800000
     31.28000000        9.38400000        3.12800000
     34.40800000        9.38400000        3.12800000
     37.53600000        9.38400000        3.12800000
     40.66400000        9.38400000        3.12800000
     43.79200000        9.38400000        3.12800000
      0.00000000       12.51200000        3.12800000
      3.12800000       12.51200000        3.12800000
      6.25600000       12.51200000        3.12800000
      9.38400000       12.51200000        3.12800000
     12.51200000       12.51200000        3.12800000
     15.64000000       12.51200000        3.12800000
     18.76800000       12.51200000        3.12800000
     21.89600000       12.51200000        3.12800000
     25.02400000       12.51200000        3.12800000
     28.15200000       12.51200000        3.12800000
     31.28000000       12.51200000        3.12800000
     34.40800000       12.51200000        3.12800000
     37.53600000       12.51200000        3.12800000
     40.66400000       12.51200000        3.12800000
     43.79200000       12.51200000        3.12800000
      0.00000000       15.64000000        3.12800000
      3.12800000       15.64000000        3.12800000
      6.25600000       15.64000000        3.12800000
      9.38400000       15.64000000        3.12800000
     12.51200000       15.64000000        3.12800000
     15.64000000       15.64000000        3.12800000
     18.76800000       15.64000000        3.12800000
     21.89600000       15.64000000        3.12800000
     25.02400000       15.64000000        3.12800000
     28.15200000       15.64000000        3.12800000
     31.28000000       15.64000000        3.12800000
     34.40800000       15.64000000        3.12800000
     37.53600000       15.64000000        3.12800000
     40.66400000       15.64000000        3.12800000
     43.79200000       15.64000000        3.12800000
      0.00000000       18.76800000        3.12800000
      3.12800000       18.76800000        3.12800000
      6.25600000       18.76800000        3.12800000
      9.38400000       18.76800000        3.12800000
     12.51200000       18.76800000        3.12800000
     15.64000000       18.76800000        3.12800000
     18.76800000       18.76800000        3.12800000
     21.89600000       18.76800000        3.12800000
     25.02400000       18.76800000        3.12800000
     28.15200000       18.76800000        3.12800000
     31.28000000       18.76800000        3.12800000
     34.40800000       18.76800000        3.12800000
     37.53600000       18.76800000        3.12800000
     40.66400000       18.76800000        3.12800000
     43.79200000       18.76800000        3.12800000
      0.00000000       21.89600000        3.12800000
      3.12800000       21.89600000        3.12800000
      6.25600000       21.89600000        3.12800000
      9.38400000       21.89600000        3.12800000
     12.51200000       21.89600000        3.12800000
     15.64000000       21.89600000        3.12800000
     18.76800000       21.89600000        3.12800000
     21.89600000       21.89600000        3.12800000
     25.02400000       21.89600000        3.12800000
     28.15200000       21.89600000        3.12800000
     31.28000000       21.89600000        3.12800000
     34.40800000       21.89600000        3.12800000
     37.53600000       21.89600000        3.12800000
     40.66400000       21.89600000        3.12800000
     43.79200000       21.89600000        3.12800000
      0.00000000       25.02400000        3.12800000
      3.12800000       25.02400000        3.12800000
      6.25600000       25.02400000        3.12800000
      9.38400000       25.02400000        3.12800000
     12.51200000       25.02400000        3.12800000
     15.64000000       25.02400000        3.12800000
     18.76800000       25.02400000        3.12800000
     21.89600000       25.02400000        3.12800000
     25.02400000       25.02400000        3.12800000
     28.15200000       25.02400000        3.12800000
     31.28000000       25.02400000        3.12800000
     34.40800000       25.02400000        3.12800000
     37.53600000       25.02400000        3.12800000
     40.66400000       25.02400000        3.12800000
     43.79200000       25.02400000        3.12800000
      0.00000000       28.15200000        3.12800000
      3.12800000       28.15200000        3.12800000
      6.25600000       28.15200000        3.12800000
      9.38400000       28.15200000        3.12800000
     12.51200000       28.15200000        3.12800000
     15.64000000       28.15200000        3.12800000
     18.76800000       28.15200000        3.12800000
     21.89600000       28.15200000        3.12800000
     25.02400000       28.15200000        3.12800000
     28.15200000       28.15200000        3.12800000
     31.28000000       28.15200000        3.12800000
     34.40800000       28.15200000        3.12800000
     37.53600000       28.15200000        3.12800000
     40.66400000       28.15200000        3.12800000
     43.79200000       28.15200000        3.12800000
      0.00000000       31.28000000        3.12800000
      3.12800000       31.28000000        3.12800000
      6.25600000       31.28000000        3.12800000
      9.38400000       31.28000000        3.12800000
     12.51200000       31.28000000        3.12800000
     15.64000000       31.28000000        3.12800000
     18.76800000       31.28000000        3.12800000
     21.89600000       31.28000000        3.12800000
     25.02400000       31.28000000        3.12800000
     28.15200000       31.28000000        3.12800000
     31.28000000       31.28000000        3.12800000
     34.40800000       31.28000000        3.12800000
     37.53600000       31.28000000        3.12800000
     40.66400000       31.28000000        3.12800000
     43.79200000       31.28000000        3.12800000
      0.00000000       34.40800000        3.12800000
      3.12800000       34.40800000        3.12800000
      6.25600000       34.40800000        3.12800000
      9.38400000       34.40800000        3.12800000
     12.51200000       34.40800000        3.12800000
     15.64000000       34.40800000        3.12800000
     18.76800000       34.40800000        3.12800000
     21.89600000       34.40800000        3.12800000
     25.02400000       34.40800000        3.12800000
     28.15200000       34.40800000        3.12800000
     31.28000000       34.40800000        3.12800000
     34.40800000       34.40800000        3.12800000
     37.53600000       34.40800000        3.12800000
     40.66400000       34.40800000        3.12800000
     43.79200000       34.40800000        3.12800000
      0.00000000       37.53600000        3.12800000
      3.12800000       37.53600000        3.12800000
      6.25600000       37.53600000        3.12800000
      9.38400000       37.53600000        3.12800000
     12.51200000       37.53600000        3.12800000
     15.64000000       37.53600000        3.12800000
     18.76800000       37.53600000        3.12800000
     21.89600000       37.53600000        3.12800000
     25.02400000       37.53600000        3.12800000
     28.15200000       37.53600000        3.12800000
     31.28000000       37.53600000        3.12800000
     34.40800000       37.53600000        3.12800000
     37.53600000       37.53600000        3.12800000
     40.66400000       37.53600000        3.12800000
     43.79200000       37.53600000        3.12800000
      0.00000000       40.66400000        3.12800000
      3.12800000       40.66400000        3.12800000
      6.25600000       40.66400000        3.12800000
      9.38400000       40.66400000        3.12800000
     12.51200000       40.66400000        3.12800000
     15.64000000       40.66400000        3.12800000
     18.76800000       40.66400000        3.12800000
     21.89600000       40.66400000        3.12800000
     25.02400000       40.66400000        3.12800000
     28.15200000       40.66400000        3.12800000
     31.28000000       40.66400000        3.12800000
     34.40800000       40.66400000        3.12800000
     37.53600000       40.66400000        3.12800000
     40.66400000       40.66400000        3.12800000
     43.79200000       40.66400000        3.12800000
      0.00000000       43.79200000        3.12800000
      3.12800000       43.79200000        3.12800000
      6.25600000       43.79200000        3.12800000
      9.38400000       43.79200000        3.12800000
     12.51200000       43.79200000        3.12800000
     15.64000000       43.79200000        3.12800000
     18.76800000       43.79200000        3.12800000
     21.89600000       43.79200000        3.12800000
     25.02400000       43.79200000        3.12800000
     28.15200000       43.79200000        3.12800000
     31.28000000       43.79200000        3.12800000
     34.40800000       43.79200000        3.12800000
     37.53600000       43.79200000        3.12800000
     40.66400000       43.79200000        3.12800000
     43.79200000       43.79200000        3.12800000
      0.00000000        0.00000000        6.25600000
      3.12800000        0.00000000        6.25600000
      6.25600000        0.00000000        6.25600000
      9.38400000        0.00000000        6.25600000
     12.51200000        0.00000000        6.25600000
     15.64000000        0.00000000        6.25600000
     18.76800000        0.00000000        6.25600000
     21.89600000        0.00000000        6.25600000
     25.02400000        0.00000000        6.25600000
     28.15200000        0.00000000        6.25600000
     31.28000000        0.00000000        6.25600000
     34.40800000        0.00000000        6.25600000
     37.53600000        0.00000000        6.25600000
     40.66400000        0.00000000        6.25600000
     43.79200000        0.00000000        6.25600000
      0.00000000        3.12800000        6.25600000
      3.12800000        3.12800000        6.25600000
      6.25600000        3.12800000        6.25600000
      9.38400000        3.12800000        6.25600000
     12.51200000        3.12800000        6.25600000
     15.64000000        3.12800000        6.25600000
     18.76800000        3.12800000        6.25600000
     21.89600000        3.12800000        6.25600000
     25.02400000        3.12800000        6.25600000
     28.15200000        3.12800000        6.25600000
     31.28000000        3.12800000        6.25600000
     34.40800000        3.12800000        6.25600000
     37.53600000        3.12800000        6.25600000
     40.66400000        3.12800000        6.25600000
     43.79200000        3.12800000        6.25600000
      0.00000000        6.25600000        6.25600000
      3.12800000        6.25600000        6.25600000
      6.25600000        6.25600000        6.25600000
      9.38400000        6.25600000        6.25600000
     12.51200000        6.25600000        6.25600000
     15.64000000        6.25600000        6.25600000
     18.76800000        6.25600000        6.25600000
     21.89600000        6.25600000        6.25600000
     25.02400000        6.25600000        6.25600000
     28.15200000        6.25600000        6.25600000
     31.28000000        6.25600000        6.25600000
     34.40800000        6.25600000        6.25600000
     37.53600000        6.25600000        6.25600000
     40.66400000        6.25600000        6.25600000
     43.79200000        6.25600000        6.25600000
      0.00000000        9.38400000        6.25600000
      3.12800000        9.38400000        6.25600000
      6.25600000        9.38400000        6.25600000
      9.38400000        9.38400000        6.25600000
     12.51200000        9.38400000        6.25600000
     15.64000000        9.38400000        6.25600000
     18.76800000        9.38400000        6.25600000
     21.89600000        9.38400000        6.25600000
     25.02400000        9.38400000        6.25600000
     28.15200000        9.38400000        6.25600000
     31.28000000        9.38400000        6.25600000
     34.40800000        9.38400000        6.25600000
     37.53600000        9.38400000        6.25600000
     40.66400000        9.38400000        6.25600000
     43.79200000        9.38400000        6.25600000
      0.00000000       12.51200000        6.25600000
      3.12800000       12.51200000        6.25600000
      6.25600000       12.51200000        6.25600000
      9.38400000       12.51200000        6.25600000
     12.51200000       12.51200000        6.25600000
     15.64000000       12.51200000        6.25600000
     18.76800000       12.51200000        6.25600000
     21.89600000       12.51200000        6.25600000
     25.02400000       12.51200000        6.25600000
     28.15200000       12.51200000        6.25600000
     31.28000000       12.51200000        6.25600000
     34.40800000       12.51200000        6.25600000
     37.53600000       12.51200000        6.25600000
     40.66400000       12.51200000        6.25600000
     43.79200000       12.51200000        6.25600000
      0.00000000       15.64000000        6.25600000
      3.12800000       15.64000000        6.25600000
      6.25600000       15.64000000        6.25600000
      9.38400000       15.64000000        6.25600000
     12.51200000       15.64000000        6.25600000
     15.64000000       15.64000000        6.25600000
     18.76800000       15.64000000        6.25600000
     21.89600000       15.64000000        6.25600000
     25.02400000       15.64000000        6.25600000
     28.15200000       15.64000000        6.25600000
     31.28000000       15.64000000        6.25600000
     34.40800000       15.64000000        6.25600000
     37.53600000       15.64000000        6.25600000
     40.66400000       15.64000000        6.25600000
     43.79200000       15.64000000        6.25600000
      0.00000000       18.76800000        6.25600000
      3.12800000       18.76800000        6.25600000
      6.25600000       18.76800000        6.25600000
      9.38400000       18.76800000        6.25600000
     12.51200000       18.76800000        6.25600000
     15.64000000       18.76800000        6.25600000
     18.76800000       18.76800000        6.25600000
     21.89600000       18.76800000        6.25600000
     25.02400000       18.76800000        6.25600000
     28.15200000       18.76800000        6.25600000
     31.28000000       18.76800000        6.25600000
     34.40800000       18.76800000        6.25600000
     37.53600000       18.76800000        6.25600000
     40.66400000       18.76800000        6.25600000
     43.79200000       18.76800000        6.25600000
      0.00000000       21.89600000        6.25600000
      3.12800000       21.89600000        6.25600000
      6.25600000       21.89600000        6.25600000
      9.38400000       21.89600000        6.25600000
     12.51200000       21.89600000        6.25600000
     15.64000000       21.89600000        6.25600000