# Bcc NiTi alloy oriented X=[100], Y=[010], Z=[001].
1.000000
      6.25600000        0.00000000        0.00000000
      0.00000000        6.25600000        0.00000000
      0.00000000        0.00000000        6.25600000
 Ni  Ti
     8       8
Cartesian
      0.00000000        0.00000000        0.00000000
      3.12800000        0.00000000        0.00000000
      0.00000000        3.12800000        0.00000000
      3.12800000        3.12800000        0.00000000
      0.00000000        0.00000000        3.12800000
      3.12800000        0.00000000        3.12800000
      0.00000000        3.12800000        3.12800000
      3.12800000        3.12800000        3.12800000
      1.56400000        1.56400000        1.56400000
      4.69200000        1.56400000        1.56400000
      1.56400000        4.69200000        1.56400000
      4.69200000        4.69200000        1.56400000
      1.56400000        1.56400000        4.69200000
      4.69200000        1.56400000        4.69200000
      1.56400000        4.69200000        4.69200000
      4.69200000        4.69200000        4.69200000
