# Bcc NiTi alloy oriented X=[100], Y=[010], Z=[001].
1.000000
     68.78400000        0.00000000        0.00000000
      0.00000000       68.78400000        0.00000000
      0.00000000        0.00000000       68.78400000
 Ni  Ti
 13824   13824
Cartesian
      0.00000000        0.00000000        0.00000000
      2.86600000        0.00000000        0.00000000
      5.73200000        0.00000000        0.00000000
      8.59800000        0.00000000        0.00000000
     11.46400000        0.00000000        0.00000000
     14.33000000        0.00000000        0.00000000
     17.19600000        0.00000000        0.00000000
     20.06200000        0.00000000        0.00000000
     22.92800000        0.00000000        0.00000000
     25.79400000        0.00000000        0.00000000
     28.66000000        0.00000000        0.00000000
     31.52600000        0.00000000        0.00000000
     34.39200000        0.00000000        0.00000000
     37.25800000        0.00000000        0.00000000
     40.12400000        0.00000000        0.00000000
     42.99000000        0.00000000        0.00000000
     45.85600000        0.00000000        0.00000000
     48.72200000        0.00000000        0.00000000
     51.58800000        0.00000000        0.00000000
     54.45400000        0.00000000        0.00000000
     57.32000000        0.00000000        0.00000000
     60.18600000        0.00000000        0.00000000
     63.05200000        0.00000000        0.00000000
     65.91800000        0.00000000        0.00000000
      0.00000000        2.86600000        0.00000000
      2.86600000        2.86600000        0.00000000
      5.73200000        2.86600000        0.00000000
      8.59800000        2.86600000        0.00000000
     11.46400000        2.86600000        0.00000000
     14.33000000        2.86600000        0.00000000
     17.19600000        2.86600000        0.00000000
     20.06200000        2.86600000        0.00000000
     22.92800000        2.86600000        0.00000000
     25.79400000        2.86600000        0.00000000
     28.66000000        2.86600000        0.00000000
     31.52600000        2.86600000        0.00000000
     34.39200000        2.86600000        0.00000000
     37.25800000        2.86600000        0.00000000
     40.12400000        2.86600000        0.00000000
     42.99000000        2.86600000        0.00000000
     45.85600000        2.86600000        0.00000000
     48.72200000        2.86600000        0.00000000
     51.58800000        2.86600000        0.00000000
     54.45400000        2.86600000        0.00000000
     57.32000000        2.86600000        0.00000000
     60.18600000        2.86600000        0.00000000
     63.05200000        2.86600000        0.00000000
     65.91800000        2.86600000        0.00000000
      0.00000000        5.73200000        0.00000000
      2.86600000        5.73200000        0.00000000
      5.73200000        5.73200000        0.00000000
      8.59800000        5.73200000        0.00000000
     11.46400000        5.73200000        0.00000000
     14.33000000        5.73200000        0.00000000
     17.19600000        5.73200000        0.00000000
     20.06200000        5.73200000        0.00000000
     22.92800000        5.73200000        0.00000000
     25.79400000        5.73200000        0.00000000
     28.66000000        5.73200000        0.00000000
     31.52600000        5.73200000        0.00000000
     34.39200000        5.73200000        0.00000000
     37.25800000        5.73200000        0.00000000
     40.12400000        5.73200000        0.00000000
     42.99000000        5.73200000        0.00000000
     45.85600000        5.73200000        0.00000000
     48.72200000        5.73200000        0.00000000
     51.58800000        5.73200000        0.00000000
     54.45400000        5.73200000        0.00000000
     57.32000000        5.73200000        0.00000000
     60.18600000        5.73200000        0.00000000
     63.05200000        5.73200000        0.00000000
     65.91800000        5.73200000        0.00000000
      0.00000000        8.59800000        0.00000000
      2.86600000        8.59800000        0.00000000
      5.73200000        8.59800000        0.00000000
      8.59800000        8.59800000        0.00000000
     11.46400000        8.59800000        0.00000000
     14.33000000        8.59800000        0.00000000
     17.19600000        8.59800000        0.00000000
     20.06200000        8.59800000        0.00000000
     22.92800000        8.59800000        0.00000000
     25.79400000        8.59800000        0.00000000
     28.66000000        8.59800000        0.00000000
     31.52600000        8.59800000        0.00000000
     34.39200000        8.59800000        0.00000000
     37.25800000        8.59800000        0.00000000
     40.12400000        8.59800000        0.00000000
     42.99000000        8.59800000        0.00000000
     45.85600000        8.59800000        0.00000000
     48.72200000        8.59800000        0.00000000
     51.58800000        8.59800000        0.00000000
     54.45400000        8.59800000        0.00000000
     57.32000000        8.59800000        0.00000000
     60.18600000        8.59800000        0.00000000
     63.05200000        8.59800000        0.00000000
     65.91800000        8.59800000        0.00000000
      0.00000000       11.46400000        0.00000000
      2.86600000       11.46400000        0.00000000
      5.73200000       11.46400000        0.00000000
      8.59800000       11.46400000        0.00000000
     11.46400000       11.46400000        0.00000000
     14.33000000       11.46400000        0.00000000
     17.19600000       11.46400000        0.00000000
     20.06200000       11.46400000        0.00000000
     22.92800000       11.46400000        0.00000000
     25.79400000       11.46400000        0.00000000
     28.66000000       11.46400000        0.00000000
     31.52600000       11.46400000        0.00000000
     34.39200000       11.46400000        0.00000000
     37.25800000       11.46400000        0.00000000
     40.12400000       11.46400000        0.00000000
     42.99000000       11.46400000        0.00000000
     45.85600000       11.46400000        0.00000000
     48.72200000       11.46400000        0.00000000
     51.58800000       11.46400000        0.00000000
     54.45400000       11.46400000        0.00000000
     57.32000000       11.46400000        0.00000000
     60.18600000       11.46400000        0.00000000
     63.05200000       11.46400000        0.00000000
     65.91800000       11.46400000        0.00000000
      0.00000000       14.33000000        0.00000000
      2.86600000       14.33000000        0.00000000
      5.73200000       14.33000000        0.00000000
      8.59800000       14.33000000        0.00000000
     11.46400000       14.33000000        0.00000000
     14.33000000       14.33000000        0.00000000
     17.19600000       14.33000000        0.00000000
     20.06200000       14.33000000        0.00000000
     22.92800000       14.33000000        0.00000000
     25.79400000       14.33000000        0.00000000
     28.66000000       14.33000000        0.00000000
     31.52600000       14.33000000        0.00000000
     34.39200000       14.33000000        0.00000000
     37.25800000       14.33000000        0.00000000
     40.12400000       14.33000000        0.00000000
     42.99000000       14.33000000        0.00000000
     45.85600000       14.33000000        0.00000000
     48.72200000       14.33000000        0.00000000
     51.58800000       14.33000000        0.00000000
     54.45400000       14.33000000        0.00000000
     57.32000000       14.33000000        0.00000000
     60.18600000       14.33000000        0.00000000
     63.05200000       14.33000000        0.00000000
     65.91800000       14.33000000        0.00000000
      0.00000000       17.19600000        0.00000000
      2.86600000       17.19600000        0.00000000
      5.73200000       17.19600000        0.00000000
      8.59800000       17.19600000        0.00000000
     11.46400000       17.19600000        0.00000000
     14.33000000       17.19600000        0.00000000
     17.19600000       17.19600000        0.00000000
     20.06200000       17.19600000        0.00000000
     22.92800000       17.19600000        0.00000000
     25.79400000       17.19600000        0.00000000
     28.66000000       17.19600000        0.00000000
     31.52600000       17.19600000        0.00000000
     34.39200000       17.19600000        0.00000000
     37.25800000       17.19600000        0.00000000
     40.12400000       17.19600000        0.00000000
     42.99000000       17.19600000        0.00000000
     45.85600000       17.19600000        0.00000000
     48.72200000       17.19600000        0.00000000
     51.58800000       17.19600000        0.00000000
     54.45400000       17.19600000        0.00000000
     57.32000000       17.19600000        0.00000000
     60.18600000       17.19600000        0.00000000
     63.05200000       17.19600000        0.00000000
     65.91800000       17.19600000        0.00000000
      0.00000000       20.06200000        0.00000000
      2.86600000       20.06200000        0.00000000
      5.73200000       20.06200000        0.00000000
      8.59800000       20.06200000        0.00000000
     11.46400000       20.06200000        0.00000000
     14.33000000       20.06200000        0.00000000
     17.19600000       20.06200000        0.00000000
     20.06200000       20.06200000        0.00000000
     22.92800000       20.06200000        0.00000000
     25.79400000       20.06200000        0.00000000
     28.66000000       20.06200000        0.00000000
     31.52600000       20.06200000        0.00000000
     34.39200000       20.06200000        0.00000000
     37.25800000       20.06200000        0.00000000
     40.12400000       20.06200000        0.00000000
     42.99000000       20.06200000        0.00000000
     45.85600000       20.06200000        0.00000000
     48.72200000       20.06200000        0.00000000
     51.58800000       20.06200000        0.00000000
     54.45400000       20.06200000        0.00000000
     57.32000000       20.06200000        0.00000000
     60.18600000       20.06200000        0.00000000
     63.05200000       20.06200000        0.00000000
     65.91800000       20.06200000        0.00000000
      0.00000000       22.92800000        0.00000000
      2.86600000       22.92800000        0.00000000
      5.73200000       22.92800000        0.00000000
      8.59800000       22.92800000        0.00000000
     11.46400000       22.92800000        0.00000000
     14.33000000       22.92800000        0.00000000
     17.19600000       22.92800000        0.00000000
     20.06200000       22.92800000        0.00000000
     22.92800000       22.92800000        0.00000000
     25.79400000       22.92800000        0.00000000
     28.66000000       22.92800000        0.00000000
     31.52600000       22.92800000        0.00000000
     34.39200000       22.92800000        0.00000000
     37.25800000       22.92800000        0.00000000
     40.12400000       22.92800000        0.00000000
     42.99000000       22.92800000        0.00000000
     45.85600000       22.92800000        0.00000000
     48.72200000       22.92800000        0.00000000
     51.58800000       22.92800000        0.00000000
     54.45400000       22.92800000        0.00000000
     57.32000000       22.92800000        0.00000000
     60.18600000       22.92800000        0.00000000
     63.05200000       22.92800000        0.00000000
     65.91800000       22.92800000        0.00000000
      0.00000000       25.79400000        0.00000000
      2.86600000       25.79400000        0.00000000
      5.73200000       25.79400000        0.00000000
      8.59800000       25.79400000        0.00000000
     11.46400000       25.79400000        0.00000000
     14.33000000       25.79400000        0.00000000
     17.19600000       25.79400000        0.00000000
     20.06200000       25.79400000        0.00000000
     22.92800000       25.79400000        0.00000000
     25.79400000       25.79400000        0.00000000
     28.66000000       25.79400000        0.00000000
     31.52600000       25.79400000        0.00000000
     34.39200000       25.79400000        0.00000000
     37.25800000       25.79400000        0.00000000
     40.12400000       25.79400000        0.00000000
     42.99000000       25.79400000        0.00000000
     45.85600000       25.79400000        0.00000000
     48.72200000       25.79400000        0.00000000
     51.58800000       25.79400000        0.00000000
     54.45400000       25.79400000        0.00000000
     57.32000000       25.79400000        0.00000000
     60.18600000       25.79400000        0.00000000
     63.05200000       25.79400000        0.00000000
     65.91800000       25.79400000        0.00000000
      0.00000000       28.66000000        0.00000000
      2.86600000       28.66000000        0.00000000
      5.73200000       28.66000000        0.00000000
      8.59800000       28.66000000        0.00000000
     11.46400000       28.66000000        0.00000000
     14.33000000       28.66000000        0.00000000
     17.19600000       28.66000000        0.00000000
     20.06200000       28.66000000        0.00000000
     22.92800000       28.66000000        0.00000000
     25.79400000       28.66000000        0.00000000
     28.66000000       28.66000000        0.00000000
     31.52600000       28.66000000        0.00000000
     34.39200000       28.66000000        0.00000000
     37.25800000       28.66000000        0.00000000
     40.12400000       28.66000000        0.00000000
     42.99000000       28.66000000        0.00000000
     45.85600000       28.66000000        0.00000000
     48.72200000       28.66000000        0.00000000
     51.58800000       28.66000000        0.00000000
     54.45400000       28.66000000        0.00000000
     57.32000000       28.66000000        0.00000000
     60.18600000       28.66000000        0.00000000
     63.05200000       28.66000000        0.00000000
     65.91800000       28.66000000        0.00000000
      0.00000000       31.52600000        0.00000000
      2.86600000       31.52600000        0.00000000
      5.73200000       31.52600000        0.00000000
      8.59800000       31.52600000        0.00000000
     11.46400000       31.52600000        0.00000000
     14.33000000       31.52600000        0.00000000
     17.19600000       31.52600000        0.00000000
     20.06200000       31.52600000        0.00000000
     22.92800000       31.52600000        0.00000000
     25.79400000       31.52600000        0.00000000
     28.66000000       31.52600000        0.00000000
     31.52600000       31.52600000        0.00000000
     34.39200000       31.52600000        0.00000000
     37.25800000       31.52600000        0.00000000
     40.12400000       31.52600000        0.00000000
     42.99000000       31.52600000        0.00000000
     45.85600000       31.52600000        0.00000000
     48.72200000       31.52600000        0.00000000
     51.58800000       31.52600000        0.00000000
     54.45400000       31.52600000        0.00000000
     57.32000000       31.52600000        0.00000000
     60.18600000       31.52600000        0.00000000
     63.05200000       31.52600000        0.00000000
     65.91800000       31.52600000        0.00000000
      0.00000000       34.39200000        0.00000000
      2.86600000       34.39200000        0.00000000
      5.73200000       34.39200000        0.00000000
      8.59800000       34.39200000        0.00000000
     11.46400000       34.39200000        0.00000000
     14.33000000       34.39200000        0.00000000
     17.19600000       34.39200000        0.00000000
     20.06200000       34.39200000        0.00000000
     22.92800000       34.39200000        0.00000000
     25.79400000       34.39200000        0.00000000
     28.66000000       34.39200000        0.00000000
     31.52600000       34.39200000        0.00000000
     34.39200000       34.39200000        0.00000000
     37.25800000       34.39200000        0.00000000
     40.12400000       34.39200000        0.00000000
     42.99000000       34.39200000        0.00000000
     45.85600000       34.39200000        0.00000000
     48.72200000       34.39200000        0.00000000
     51.58800000       34.39200000        0.00000000
     54.45400000       34.39200000        0.00000000
     57.32000000       34.39200000        0.00000000
     60.18600000       34.39200000        0.00000000
     63.05200000       34.39200000        0.00000000
     65.91800000       34.39200000        0.00000000
      0.00000000       37.25800000        0.00000000
      2.86600000       37.25800000        0.00000000
      5.73200000       37.25800000        0.00000000
      8.59800000       37.25800000        0.00000000
     11.46400000       37.25800000        0.00000000
     14.33000000       37.25800000        0.00000000
     17.19600000       37.25800000        0.00000000
     20.06200000       37.25800000        0.00000000
     22.92800000       37.25800000        0.00000000
     25.79400000       37.25800000        0.00000000
     28.66000000       37.25800000        0.00000000
     31.52600000       37.25800000        0.00000000
     34.39200000       37.25800000        0.00000000
     37.25800000       37.25800000        0.00000000
     40.12400000       37.25800000        0.00000000
     42.99000000       37.25800000        0.00000000
     45.85600000       37.25800000        0.00000000
     48.72200000       37.25800000        0.00000000
     51.58800000       37.25800000        0.00000000
     54.45400000       37.25800000        0.00000000
     57.32000000       37.25800000        0.00000000
     60.18600000       37.25800000        0.00000000
     63.05200000       37.25800000        0.00000000
     65.91800000       37.25800000        0.00000000
      0.00000000       40.12400000        0.00000000
      2.86600000       40.12400000        0.00000000
      5.73200000       40.12400000        0.00000000
      8.59800000       40.12400000        0.00000000
     11.46400000       40.12400000        0.00000000
     14.33000000       40.12400000        0.00000000
     17.19600000       40.12400000        0.00000000
     20.06200000       40.12400000        0.00000000
     22.92800000       40.12400000        0.00000000
     25.79400000       40.12400000        0.00000000
     28.66000000       40.12400000        0.00000000
     31.52600000       40.12400000        0.00000000
     34.39200000       40.12400000        0.00000000
     37.25800000       40.12400000        0.00000000
     40.12400000       40.12400000        0.00000000
     42.99000000       40.12400000        0.00000000
     45.85600000       40.12400000        0.00000000
     48.72200000       40.12400000        0.00000000
     51.58800000       40.12400000        0.00000000
     54.45400000       40.12400000        0.00000000
     57.32000000       40.12400000        0.00000000
     60.18600000       40.12400000        0.00000000
     63.05200000       40.12400000        0.00000000
     65.91800000       40.12400000        0.00000000
      0.00000000       42.99000000        0.00000000
      2.86600000       42.99000000        0.00000000
      5.73200000       42.99000000        0.00000000
      8.59800000       42.99000000        0.00000000
     11.46400000       42.99000000        0.00000000
     14.33000000       42.99000000        0.00000000
     17.19600000       42.99000000        0.00000000
     20.06200000       42.99000000        0.00000000
     22.92800000       42.99000000        0.00000000
     25.79400000       42.99000000        0.00000000
     28.66000000       42.99000000        0.00000000
     31.52600000       42.99000000        0.00000000
     34.39200000       42.99000000        0.00000000
     37.25800000       42.99000000        0.00000000
     40.12400000       42.99000000        0.00000000
     42.99000000       42.99000000        0.00000000
     45.85600000       42.99000000        0.00000000
     48.72200000       42.99000000        0.00000000
     51.58800000       42.99000000        0.00000000
     54.45400000       42.99000000        0.00000000
     57.32000000       42.99000000        0.00000000
     60.18600000       42.99000000        0.00000000
     63.05200000       42.99000000        0.00000000
     65.91800000       42.99000000        0.00000000
      0.00000000       45.85600000        0.00000000
      2.86600000       45.85600000        0.00000000
      5.73200000       45.85600000        0.00000000
      8.59800000       45.85600000        0.00000000
     11.46400000       45.85600000        0.00000000
     14.33000000       45.85600000        0.00000000
     17.19600000       45.85600000        0.00000000
     20.06200000       45.85600000        0.00000000
     22.92800000       45.85600000        0.00000000
     25.79400000       45.85600000        0.00000000
     28.66000000       45.85600000        0.00000000
     31.52600000       45.85600000        0.00000000
     34.39200000       45.85600000        0.00000000
     37.25800000       45.85600000        0.00000000
     40.12400000       45.85600000        0.00000000
     42.99000000       45.85600000        0.00000000
     45.85600000       45.85600000        0.00000000
     48.72200000       45.85600000        0.00000000
     51.58800000       45.85600000        0.00000000
     54.45400000       45.85600000        0.00000000
     57.32000000       45.85600000        0.00000000
     60.18600000       45.85600000        0.00000000
     63.05200000       45.85600000        0.00000000
     65.91800000       45.85600000        0.00000000
      0.00000000       48.72200000        0.00000000
      2.86600000       48.72200000        0.00000000
      5.73200000       48.72200000        0.00000000
      8.59800000       48.72200000        0.00000000
     11.46400000       48.72200000        0.00000000
     14.33000000       48.72200000        0.00000000
     17.19600000       48.72200000        0.00000000
     20.06200000       48.72200000        0.00000000
     22.92800000       48.72200000        0.00000000
     25.79400000       48.72200000        0.00000000
     28.66000000       48.72200000        0.00000000
     31.52600000       48.72200000        0.00000000
     34.39200000       48.72200000        0.00000000
     37.25800000       48.72200000        0.00000000
     40.12400000       48.72200000        0.00000000
     42.99000000       48.72200000        0.00000000
     45.85600000       48.72200000        0.00000000
     48.72200000       48.72200000        0.00000000
     51.58800000       48.72200000        0.00000000
     54.45400000       48.72200000        0.00000000
     57.32000000       48.72200000        0.00000000
     60.18600000       48.72200000        0.00000000
     63.05200000       48.72200000        0.00000000
     65.91800000       48.72200000        0.00000000
      0.00000000       51.58800000        0.00000000
      2.86600000       51.58800000        0.00000000
      5.73200000       51.58800000        0.00000000
      8.59800000       51.58800000        0.00000000
     11.46400000       51.58800000        0.00000000
     14.33000000       51.58800000        0.00000000
     17.19600000       51.58800000        0.00000000
     20.06200000       51.58800000        0.00000000
     22.92800000       51.58800000        0.00000000
     25.79400000       51.58800000        0.00000000
     28.66000000       51.58800000        0.00000000
     31.52600000       51.58800000        0.00000000
     34.39200000       51.58800000        0.00000000
     37.25800000       51.58800000        0.00000000
     40.12400000       51.58800000        0.00000000
     42.99000000       51.58800000        0.00000000
     45.85600000       51.58800000        0.00000000
     48.72200000       51.58800000        0.00000000
     51.58800000       51.58800000        0.00000000
     54.45400000       51.58800000        0.00000000
     57.32000000       51.58800000        0.00000000
     60.18600000       51.58800000        0.00000000
     63.05200000       51.58800000        0.00000000
     65.91800000       51.58800000        0.00000000
      0.00000000       54.45400000        0.00000000
      2.86600000       54.45400000        0.00000000
      5.73200000       54.45400000        0.00000000
      8.59800000       54.45400000        0.00000000
     11.46400000       54.45400000        0.00000000
     14.33000000       54.45400000        0.00000000
     17.19600000       54.45400000        0.00000000
     20.06200000       54.45400000        0.00000000
     22.92800000       54.45400000        0.00000000
     25.79400000       54.45400000        0.00000000
     28.66000000       54.45400000        0.00000000
     31.52600000       54.45400000        0.00000000
     34.39200000       54.45400000        0.00000000
     37.25800000       54.45400000        0.00000000
     40.12400000       54.45400000        0.00000000
     42.99000000       54.45400000        0.00000000
     45.85600000       54.45400000        0.00000000
     48.72200000       54.45400000        0.00000000
     51.58800000       54.45400000        0.00000000
     54.45400000       54.45400000        0.00000000
     57.32000000       54.45400000        0.00000000
     60.18600000       54.45400000        0.00000000
     63.05200000       54.45400000        0.00000000
     65.91800000       54.45400000        0.00000000
      0.00000000       57.32000000        0.00000000
      2.86600000       57.32000000        0.00000000
      5.73200000       57.32000000        0.00000000
      8.59800000       57.32000000        0.00000000
     11.46400000       57.32000000        0.00000000
     14.33000000       57.32000000        0.00000000
     17.19600000       57.32000000        0.00000000
     20.06200000       57.32000000        0.00000000
     22.92800000       57.32000000        0.00000000
     25.79400000       57.32000000        0.00000000
     28.66000000       57.32000000        0.00000000
     31.52600000       57.32000000        0.00000000
     34.39200000       57.32000000        0.00000000
     37.25800000       57.32000000        0.00000000
     40.12400000       57.32000000        0.00000000
     42.99000000       57.32000000        0.00000000
     45.85600000       57.32000000        0.00000000
     48.72200000       57.32000000        0.00000000
     51.58800000       57.32000000        0.00000000
     54.45400000       57.32000000        0.00000000
     57.32000000       57.32000000        0.00000000
     60.18600000       57.32000000        0.00000000
     63.05200000       57.32000000        0.00000000
     65.91800000       57.32000000        0.00000000
      0.00000000       60.18600000        0.00000000
      2.86600000       60.18600000        0.00000000
      5.73200000       60.18600000        0.00000000
      8.59800000       60.18600000        0.00000000
     11.46400000       60.18600000        0.00000000
     14.33000000       60.18600000        0.00000000
     17.19600000       60.18600000        0.00000000
     20.06200000       60.18600000        0.00000000
     22.92800000       60.18600000        0.00000000
     25.79400000       60.18600000        0.00000000
     28.66000000       60.18600000        0.00000000
     31.52600000       60.18600000        0.00000000
     34.39200000       60.18600000        0.00000000
     37.25800000       60.18600000        0.00000000
     40.12400000       60.18600000        0.00000000
     42.99000000       60.18600000        0.00000000
     45.85600000       60.18600000        0.00000000
     48.72200000       60.18600000        0.00000000
     51.58800000       60.18600000        0.00000000
     54.45400000       60.18600000        0.00000000
     57.32000000       60.18600000        0.00000000
     60.18600000       60.18600000        0.00000000
     63.05200000       60.18600000        0.00000000
     65.91800000       60.18600000        0.00000000
      0.00000000       63.05200000        0.00000000
      2.86600000       63.05200000        0.00000000
      5.73200000       63.05200000        0.00000000
      8.59800000       63.05200000        0.00000000
     11.46400000       63.05200000        0.00000000
     14.33000000       63.05200000        0.00000000
     17.19600000       63.05200000        0.00000000
     20.06200000       63.05200000        0.00000000
     22.92800000       63.05200000        0.00000000
     25.79400000       63.05200000        0.00000000
     28.66000000       63.05200000        0.00000000
     31.52600000       63.05200000        0.00000000
     34.39200000       63.05200000        0.00000000
     37.25800000       63.05200000        0.00000000
     40.12400000       63.05200000        0.00000000
     42.99000000       63.05200000        0.00000000
     45.85600000       63.05200000        0.00000000
     48.72200000       63.05200000        0.00000000
     51.58800000       63.05200000        0.00000000
     54.45400000       63.05200000        0.00000000
     57.32000000       63.05200000        0.00000000
     60.18600000       63.05200000        0.00000000
     63.05200000       63.05200000        0.00000000
     65.91800000       63.05200000        0.00000000
      0.00000000       65.91800000        0.00000000
      2.86600000       65.91800000        0.00000000
      5.73200000       65.91800000        0.00000000
      8.59800000       65.91800000        0.00000000
     11.46400000       65.91800000        0.00000000
     14.33000000       65.91800000        0.00000000
     17.19600000       65.91800000        0.00000000
     20.06200000       65.91800000        0.00000000
     22.92800000       65.91800000        0.00000000