# Bcc NiTi alloy oriented X=[110], Y=[1-10], Z=[001].
1.000000
     61.80452679        0.00000000        0.00000000
      0.00000000       30.90226339        0.00000000
      0.00000000        0.00000000       31.21600000
 Ni  Ti
  1960    1960
Cartesian
      0.00000000        0.00000000        0.00000000
      2.20730453        2.20730453        0.00000000
      4.41460906        0.00000000        0.00000000
      6.62191358        2.20730453        0.00000000
      8.82921811        0.00000000        0.00000000
     11.03652264        2.20730453        0.00000000
     13.24382717        0.00000000        0.00000000
     15.45113170        2.20730453        0.00000000
     17.65843623        0.00000000        0.00000000
     19.86574075        2.20730453        0.00000000
     22.07304528        0.00000000        0.00000000
     24.28034981        2.20730453        0.00000000
     26.48765434        0.00000000        0.00000000
     28.69495887        2.20730453        0.00000000
     30.90226339        0.00000000        0.00000000
     33.10956792        2.20730453        0.00000000
     35.31687245        0.00000000        0.00000000
     37.52417698        2.20730453        0.00000000
     39.73148151        0.00000000        0.00000000
     41.93878603        2.20730453        0.00000000
     44.14609056        0.00000000        0.00000000
     46.35339509        2.20730453        0.00000000
     48.56069962        0.00000000        0.00000000
     50.76800415        2.20730453        0.00000000
     52.97530868        0.00000000        0.00000000
     55.18261320        2.20730453        0.00000000
     57.38991773        0.00000000        0.00000000
     59.59722226        2.20730453        0.00000000
      0.00000000        4.41460906        0.00000000
      2.20730453        6.62191358        0.00000000
      4.41460906        4.41460906        0.00000000
      6.62191358        6.62191358        0.00000000
      8.82921811        4.41460906        0.00000000
     11.03652264        6.62191358        0.00000000
     13.24382717        4.41460906        0.00000000
     15.45113170        6.62191358        0.00000000
     17.65843623        4.41460906        0.00000000
     19.86574075        6.62191358        0.00000000
     22.07304528        4.41460906        0.00000000
     24.28034981        6.62191358        0.00000000
     26.48765434        4.41460906        0.00000000
     28.69495887        6.62191358        0.00000000
     30.90226339        4.41460906        0.00000000
     33.10956792        6.62191358        0.00000000
     35.31687245        4.41460906        0.00000000
     37.52417698        6.62191358        0.00000000
     39.73148151        4.41460906        0.00000000
     41.93878603        6.62191358        0.00000000
     44.14609056        4.41460906        0.00000000
     46.35339509        6.62191358        0.00000000
     48.56069962        4.41460906        0.00000000
     50.76800415        6.62191358        0.00000000
     52.97530868        4.41460906        0.00000000
     55.18261320        6.62191358        0.00000000
     57.38991773        4.41460906        0.00000000
     59.59722226        6.62191358        0.00000000
      0.00000000        8.82921811        0.00000000
      2.20730453       11.03652264        0.00000000
      4.41460906        8.82921811        0.00000000
      6.62191358       11.03652264        0.00000000
      8.82921811        8.82921811        0.00000000
     11.03652264       11.03652264        0.00000000
     13.24382717        8.82921811        0.00000000
     15.45113170       11.03652264        0.00000000
     17.65843623        8.82921811        0.00000000
     19.86574075       11.03652264        0.00000000
     22.07304528        8.82921811        0.00000000
     24.28034981       11.03652264        0.00000000
     26.48765434        8.82921811        0.00000000
     28.69495887       11.03652264        0.00000000
     30.90226339        8.82921811        0.00000000
     33.10956792       11.03652264        0.00000000
     35.31687245        8.82921811        0.00000000
     37.52417698       11.03652264        0.00000000
     39.73148151        8.82921811        0.00000000
     41.93878603       11.03652264        0.00000000
     44.14609056        8.82921811        0.00000000
     46.35339509       11.03652264        0.00000000
     48.56069962        8.82921811        0.00000000
     50.76800415       11.03652264        0.00000000
     52.97530868        8.82921811        0.00000000
     55.18261320       11.03652264        0.00000000
     57.38991773        8.82921811        0.00000000
     59.59722226       11.03652264        0.00000000
      0.00000000       13.24382717        0.00000000
      2.20730453       15.45113170        0.00000000
      4.41460906       13.24382717        0.00000000
      6.62191358       15.45113170        0.00000000
      8.82921811       13.24382717        0.00000000
     11.03652264       15.45113170        0.00000000
     13.24382717       13.24382717        0.00000000
     15.45113170       15.45113170        0.00000000
     17.65843623       13.24382717        0.00000000
     19.86574075       15.45113170        0.00000000
     22.07304528       13.24382717        0.00000000
     24.28034981       15.45113170        0.00000000
     26.48765434       13.24382717        0.00000000
     28.69495887       15.45113170        0.00000000
     30.90226339       13.24382717        0.00000000
     33.10956792       15.45113170        0.00000000
     35.31687245       13.24382717        0.00000000
     37.52417698       15.45113170        0.00000000
     39.73148151       13.24382717        0.00000000
     41.93878603       15.45113170        0.00000000
     44.14609056       13.24382717        0.00000000
     46.35339509       15.45113170        0.00000000
     48.56069962       13.24382717        0.00000000
     50.76800415       15.45113170        0.00000000
     52.97530868       13.24382717        0.00000000
     55.18261320       15.45113170        0.00000000
     57.38991773       13.24382717        0.00000000
     59.59722226       15.45113170        0.00000000
      0.00000000       17.65843623        0.00000000
      2.20730453       19.86574075        0.00000000
      4.41460906       17.65843623        0.00000000
      6.62191358       19.86574075        0.00000000
      8.82921811       17.65843623        0.00000000
     11.03652264       19.86574075        0.00000000
     13.24382717       17.65843623        0.00000000
     15.45113170       19.86574075        0.00000000
     17.65843623       17.65843623        0.00000000
     19.86574075       19.86574075        0.00000000
     22.07304528       17.65843623        0.00000000
     24.28034981       19.86574075        0.00000000
     26.48765434       17.65843623        0.00000000
     28.69495887       19.86574075        0.00000000
     30.90226339       17.65843623        0.00000000
     33.10956792       19.86574075        0.00000000
     35.31687245       17.65843623        0.00000000
     37.52417698       19.86574075        0.00000000
     39.73148151       17.65843623        0.00000000
     41.93878603       19.86574075        0.00000000
     44.14609056       17.65843623        0.00000000
     46.35339509       19.86574075        0.00000000
     48.56069962       17.65843623        0.00000000
     50.76800415       19.86574075        0.00000000
     52.97530868       17.65843623        0.00000000
     55.18261320       19.86574075        0.00000000
     57.38991773       17.65843623        0.00000000
     59.59722226       19.86574075        0.00000000
      0.00000000       22.07304528        0.00000000
      2.20730453       24.28034981        0.00000000
      4.41460906       22.07304528        0.00000000
      6.62191358       24.28034981        0.00000000
      8.82921811       22.07304528        0.00000000
     11.03652264       24.28034981        0.00000000
     13.24382717       22.07304528        0.00000000
     15.45113170       24.28034981        0.00000000
     17.65843623       22.07304528        0.00000000
     19.86574075       24.28034981        0.00000000
     22.07304528       22.07304528        0.00000000
     24.28034981       24.28034981        0.00000000
     26.48765434       22.07304528        0.00000000
     28.69495887       24.28034981        0.00000000
     30.90226339       22.07304528        0.00000000
     33.10956792       24.28034981        0.00000000
     35.31687245       22.07304528        0.00000000
     37.52417698       24.28034981        0.00000000
     39.73148151       22.07304528        0.00000000
     41.93878603       24.28034981        0.00000000
     44.14609056       22.07304528        0.00000000
     46.35339509       24.28034981        0.00000000
     48.56069962       22.07304528        0.00000000
     50.76800415       24.28034981        0.00000000
     52.97530868       22.07304528        0.00000000
     55.18261320       24.28034981        0.00000000
     57.38991773       22.07304528        0.00000000
     59.59722226       24.28034981        0.00000000
      0.00000000       26.48765434        0.00000000
      2.20730453       28.69495887        0.00000000
      4.41460906       26.48765434        0.00000000
      6.62191358       28.69495887        0.00000000
      8.82921811       26.48765434        0.00000000
     11.03652264       28.69495887        0.00000000
     13.24382717       26.48765434        0.00000000
     15.45113170       28.69495887        0.00000000
     17.65843623       26.48765434        0.00000000
     19.86574075       28.69495887        0.00000000
     22.07304528       26.48765434        0.00000000
     24.28034981       28.69495887        0.00000000
     26.48765434       26.48765434        0.00000000
     28.69495887       28.69495887        0.00000000
     30.90226339       26.48765434        0.00000000
     33.10956792       28.69495887        0.00000000
     35.31687245       26.48765434        0.00000000
     37.52417698       28.69495887        0.00000000
     39.73148151       26.48765434        0.00000000
     41.93878603       28.69495887        0.00000000
     44.14609056       26.48765434        0.00000000
     46.35339509       28.69495887        0.00000000
     48.56069962       26.48765434        0.00000000
     50.76800415       28.69495887        0.00000000
     52.97530868       26.48765434        0.00000000
     55.18261320       28.69495887        0.00000000
     57.38991773       26.48765434        0.00000000
     59.59722226       28.69495887        0.00000000
      0.00000000        0.00000000        3.12160000
      2.20730453        2.20730453        3.12160000
      4.41460906        0.00000000        3.12160000
      6.62191358        2.20730453        3.12160000
      8.82921811        0.00000000        3.12160000
     11.03652264        2.20730453        3.12160000
     13.24382717        0.00000000        3.12160000
     15.45113170        2.20730453        3.12160000
     17.65843623        0.00000000        3.12160000
     19.86574075        2.20730453        3.12160000
     22.07304528        0.00000000        3.12160000
     24.28034981        2.20730453        3.12160000
     26.48765434        0.00000000        3.12160000
     28.69495887        2.20730453        3.12160000
     30.90226339        0.00000000        3.12160000
     33.10956792        2.20730453        3.12160000
     35.31687245        0.00000000        3.12160000
     37.52417698        2.20730453        3.12160000
     39.73148151        0.00000000        3.12160000
     41.93878603        2.20730453        3.12160000
     44.14609056        0.00000000        3.12160000
     46.35339509        2.20730453        3.12160000
     48.56069962        0.00000000        3.12160000
     50.76800415        2.20730453        3.12160000
     52.97530868        0.00000000        3.12160000
     55.18261320        2.20730453        3.12160000
     57.38991773        0.00000000        3.12160000
     59.59722226        2.20730453        3.12160000
      0.00000000        4.41460906        3.12160000
      2.20730453        6.62191358        3.12160000
      4.41460906        4.41460906        3.12160000
      6.62191358        6.62191358        3.12160000
      8.82921811        4.41460906        3.12160000
     11.03652264        6.62191358        3.12160000
     13.24382717        4.41460906        3.12160000
     15.45113170        6.62191358        3.12160000
     17.65843623        4.41460906        3.12160000
     19.86574075        6.62191358        3.12160000
     22.07304528        4.41460906        3.12160000
     24.28034981        6.62191358        3.12160000
     26.48765434        4.41460906        3.12160000
     28.69495887        6.62191358        3.12160000
     30.90226339        4.41460906        3.12160000
     33.10956792        6.62191358        3.12160000
     35.31687245        4.41460906        3.12160000
     37.52417698        6.62191358        3.12160000
     39.73148151        4.41460906        3.12160000
     41.93878603        6.62191358        3.12160000
     44.14609056        4.41460906        3.12160000
     46.35339509        6.62191358        3.12160000
     48.56069962        4.41460906        3.12160000
     50.76800415        6.62191358        3.12160000
     52.97530868        4.41460906        3.12160000
     55.18261320        6.62191358        3.12160000
     57.38991773        4.41460906        3.12160000
     59.59722226        6.62191358        3.12160000
      0.00000000        8.82921811        3.12160000
      2.20730453       11.03652264        3.12160000
      4.41460906        8.82921811        3.12160000
      6.62191358       11.03652264        3.12160000
      8.82921811        8.82921811        3.12160000
     11.03652264       11.03652264        3.12160000
     13.24382717        8.82921811        3.12160000
     15.45113170       11.03652264        3.12160000
     17.65843623        8.82921811        3.12160000
     19.86574075       11.03652264        3.12160000
     22.07304528        8.82921811        3.12160000
     24.28034981       11.03652264        3.12160000
     26.48765434        8.82921811        3.12160000
     28.69495887       11.03652264        3.12160000
     30.90226339        8.82921811        3.12160000
     33.10956792       11.03652264        3.12160000
     35.31687245        8.82921811        3.12160000
     37.52417698       11.03652264        3.12160000
     39.73148151        8.82921811        3.12160000
     41.93878603       11.03652264        3.12160000
     44.14609056        8.82921811        3.12160000
     46.35339509       11.03652264        3.12160000
     48.56069962        8.82921811        3.12160000
     50.76800415       11.03652264        3.12160000
     52.97530868        8.82921811        3.12160000
     55.18261320       11.03652264        3.12160000
     57.38991773        8.82921811        3.12160000
     59.59722226       11.03652264        3.12160000
      0.00000000       13.24382717        3.12160000
      2.20730453       15.45113170        3.12160000
      4.41460906       13.24382717        3.12160000
      6.62191358       15.45113170        3.12160000
      8.82921811       13.24382717        3.12160000
     11.03652264       15.45113170        3.12160000
     13.24382717       13.24382717        3.12160000
     15.45113170       15.45113170        3.12160000
     17.65843623       13.24382717        3.12160000
     19.86574075       15.45113170        3.12160000
     22.07304528       13.24382717        3.12160000
     24.28034981       15.45113170        3.12160000
     26.48765434       13.24382717        3.12160000
     28.69495887       15.45113170        3.12160000
     30.90226339       13.24382717        3.12160000
     33.10956792       15.45113170        3.12160000
     35.31687245       13.24382717        3.12160000
     37.52417698       15.45113170        3.12160000
     39.73148151       13.24382717        3.12160000
     41.93878603       15.45113170        3.12160000
     44.14609056       13.24382717        3.12160000
     46.35339509       15.45113170        3.12160000
     48.56069962       13.24382717        3.12160000
     50.76800415       15.45113170        3.12160000
     52.97530868       13.24382717        3.12160000
     55.18261320       15.45113170        3.12160000
     57.38991773       13.24382717        3.12160000
     59.59722226       15.45113170        3.12160000
      0.00000000       17.65843623        3.12160000
      2.20730453       19.86574075        3.12160000
      4.41460906       17.65843623        3.12160000
      6.62191358       19.86574075        3.12160000
      8.82921811       17.65843623        3.12160000
     11.03652264       19.86574075        3.12160000
     13.24382717       17.65843623        3.12160000
     15.45113170       19.86574075        3.12160000
     17.65843623       17.65843623        3.12160000
     19.86574075       19.86574075        3.12160000
     22.07304528       17.65843623        3.12160000
     24.28034981       19.86574075        3.12160000
     26.48765434       17.65843623        3.12160000
     28.69495887       19.86574075        3.12160000
     30.90226339       17.65843623        3.12160000
     33.10956792       19.86574075        3.12160000
     35.31687245       17.65843623        3.12160000
     37.52417698       19.86574075        3.12160000
     39.73148151       17.65843623        3.12160000
     41.93878603       19.86574075        3.12160000
     44.14609056       17.65843623        3.12160000
     46.35339509       19.86574075        3.12160000
     48.56069962       17.65843623        3.12160000
     50.76800415       19.86574075        3.12160000
     52.97530868       17.65843623        3.12160000
     55.18261320       19.86574075        3.12160000
     57.38991773       17.65843623        3.12160000
     59.59722226       19.86574075        3.12160000
      0.00000000       22.07304528        3.12160000
      2.20730453       24.28034981        3.12160000
      4.41460906       22.07304528        3.12160000
      6.62191358       24.28034981        3.12160000
      8.82921811       22.07304528        3.12160000
     11.03652264       24.28034981        3.12160000
     13.24382717       22.07304528        3.12160000
     15.45113170       24.28034981        3.12160000
     17.65843623       22.07304528        3.12160000
     19.86574075       24.28034981        3.12160000
     22.07304528       22.07304528        3.12160000
     24.28034981       24.28034981        3.12160000
     26.48765434       22.07304528        3.12160000
     28.69495887       24.28034981        3.12160000
     30.90226339       22.07304528        3.12160000
     33.10956792       24.28034981        3.12160000
     35.31687245       22.07304528        3.12160000
     37.52417698       24.28034981        3.12160000
     39.73148151       22.07304528        3.12160000
     41.93878603       24.28034981        3.12160000
     44.14609056       22.07304528        3.12160000
     46.35339509       24.28034981        3.12160000
     48.56069962       22.07304528        3.12160000
     50.76800415       24.28034981        3.12160000
     52.97530868       22.07304528        3.12160000
     55.18261320       24.28034981        3.12160000
     57.38991773       22.07304528        3.12160000
     59.59722226       24.28034981        3.12160000
      0.00000000       26.48765434        3.12160000
      2.20730453       28.69495887        3.12160000
      4.41460906       26.48765434        3.12160000
      6.62191358       28.69495887        3.12160000
      8.82921811       26.48765434        3.12160000
     11.03652264       28.69495887        3.12160000
     13.24382717       26.48765434        3.12160000
     15.45113170       28.69495887        3.12160000
     17.65843623       26.48765434        3.12160000
     19.86574075       28.69495887        3.12160000
     22.07304528       26.48765434        3.12160000
     24.28034981       28.69495887        3.12160000
     26.48765434       26.48765434        3.12160000
     28.69495887       28.69495887        3.12160000
     30.90226339       26.48765434        3.12160000
     33.10956792       28.69495887        3.12160000
     35.31687245       26.48765434        3.12160000
     37.52417698       28.69495887        3.12160000
     39.73148151       26.48765434        3.12160000
     41.93878603       28.69495887        3.12160000
     44.14609056       26.48765434        3.12160000
     46.35339509       28.69495887        3.12160000
     48.56069962       26.48765434        3.12160000
     50.76800415       28.69495887        3.12160000
     52.97530868       26.48765434        3.12160000
     55.18261320       28.69495887        3.12160000
     57.38991773       26.48765434        3.12160000
     59.59722226       28.69495887        3.12160000
      0.00000000        0.00000000        6.24320000
      2.20730453        2.20730453        6.24320000
      4.41460906        0.00000000        6.24320000
      6.62191358        2.20730453        6.24320000
      8.82921811        0.00000000        6.24320000
     11.03652264        2.20730453        6.24320000
     13.24382717        0.00000000        6.24320000
     15.45113170        2.20730453        6.24320000
     17.65843623        0.00000000        6.24320000
     19.86574075        2.20730453        6.24320000
     22.07304528        0.00000000        6.24320000
     24.28034981        2.20730453        6.24320000
     26.48765434        0.00000000        6.24320000
     28.69495887        2.20730453        6.24320000
     30.90226339        0.00000000        6.24320000
     33.10956792        2.20730453        6.24320000
     35.31687245        0.00000000        6.24320000
     37.52417698        2.20730453        6.24320000
     39.73148151        0.00000000        6.24320000
     41.93878603        2.20730453        6.24320000
     44.14609056        0.00000000        6.24320000
     46.35339509        2.20730453        6.24320000
     48.56069962        0.00000000        6.24320000
     50.76800415        2.20730453        6.24320000
     52.97530868        0.00000000        6.24320000
     55.18261320        2.20730453        6.24320000
     57.38991773        0.00000000        6.24320000
     59.59722226        2.20730453        6.24320000
      0.00000000        4.41460906        6.24320000
      2.20730453        6.62191358        6.24320000
      4.41460906        4.41460906        6.24320000
      6.62191358        6.62191358        6.24320000
      8.82921811        4.41460906        6.24320000
     11.03652264        6.62191358        6.24320000
     13.24382717        4.41460906        6.24320000
     15.45113170        6.62191358        6.24320000
     17.65843623        4.41460906        6.24320000
     19.86574075        6.62191358        6.24320000
     22.07304528        4.41460906        6.24320000
     24.28034981        6.62191358        6.24320000
     26.48765434        4.41460906        6.24320000
     28.69495887        6.62191358        6.24320000
     30.90226339        4.41460906        6.24320000
     33.10956792        6.62191358        6.24320000
     35.31687245        4.41460906        6.24320000
     37.52417698        6.62191358        6.24320000
     39.73148151        4.41460906        6.24320000
     41.93878603        6.62191358        6.24320000
     44.14609056        4.41460906        6.24320000
     46.35339509        6.62191358        6.24320000
     48.56069962        4.41460906        6.24320000
     50.76800415        6.62191358        6.24320000
     52.97530868        4.41460906        6.24320000
     55.18261320        6.62191358        6.24320000
     57.38991773        4.41460906        6.24320000
     59.59722226        6.62191358        6.24320000
      0.00000000        8.82921811        6.24320000
      2.20730453       11.03652264        6.24320000
      4.41460906        8.82921811        6.24320000
      6.62191358       11.03652264        6.24320000
      8.82921811        8.82921811        6.24320000
     11.03652264       11.03652264        6.24320000
     13.24382717        8.82921811        6.24320000
     15.45113170       11.03652264        6.24320000
     17.65843623        8.82921811        6.24320000
     19.86574075       11.03652264        6.24320000
     22.07304528        8.82921811        6.24320000
     24.28034981       11.03652264        6.24320000
     26.48765434        8.82921811        6.24320000
     28.69495887       11.03652264        6.24320000
     30.90226339        8.82921811        6.24320000
     33.10956792       11.03652264        6.24320000
     35.31687245        8.82921811        6.24320000
     37.52417698       11.03652264        6.24320000
     39.73148151        8.82921811        6.24320000
     41.93878603       11.03652264        6.24320000
     44.14609056        8.82921811        6.24320000
     46.35339509       11.03652264        6.24320000
     48.56069962        8.82921811        6.24320000
     50.76800415       11.03652264        6.24320000
     52.97530868        8.82921811        6.24320000
     55.18261320       11.03652264        6.24320000
     57.38991773        8.82921811        6.24320000
     59.59722226       11.03652264        6.24320000
      0.00000000       13.24382717        6.24320000
      2.20730453       15.45113170        6.24320000
      4.41460906       13.24382717        6.24320000
      6.62191358       15.45113170        6.24320000
      8.82921811       13.24382717        6.24320000
     11.03652264       15.45113170        6.24320000
     13.24382717       13.24382717        6.24320000
     15.45113170       15.45113170        6.24320000
     17.65843623       13.24382717        6.24320000
     19.86574075       15.45113170        6.24320000
     22.07304528       13.24382717        6.24320000
     24.28034981       15.45113170        6.24320000
     26.48765434       13.24382717        6.24320000
     28.69495887       15.45113170        6.24320000
     30.90226339       13.24382717        6.24320000
     33.10956792       15.45113170        6.24320000
     35.31687245       13.24382717        6.24320000
     37.52417698       15.45113170        6.24320000
     39.73148151       13.24382717        6.24320000
     41.93878603       15.45113170        6.24320000
     44.14609056       13.24382717        6.24320000
     46.35339509       15.45113170        6.24320000
     48.56069962       13.24382717        6.24320000
     50.76800415       15.45113170        6.24320000
     52.97530868       13.24382717        6.24320000
     55.18261320       15.45113170        6.24320000
     57.38991773       13.24382717        6.24320000
     59.59722226       15.45113170        6.24320000
      0.00000000       17.65843623        6.24320000
      2.20730453       19.86574075        6.24320000
      4.41460906       17.65843623        6.24320000
      6.62191358       19.86574075        6.24320000
      8.82921811       17.65843623        6.24320000
     11.03652264       19.86574075        6.24320000
     13.24382717       17.65843623        6.24320000
     15.45113170       19.86574075        6.24320000
     17.65843623       17.65843623        6.24320000
     19.86574075       19.86574075        6.24320000
     22.07304528       17.65843623        6.24320000
     24.28034981       19.86574075        6.24320000
     26.48765434       17.65843623        6.24320000
     28.69495887       19.86574075        6.24320000
     30.90226339       17.65843623        6.24320000
     33.10956792       19.86574075        6.24320000
     35.31687245       17.65843623        6.24320000
     37.52417698       19.86574075        6.24320000
     39.73148151       17.65843623        6.24320000
     41.93878603       19.86574075        6.24320000
     44.14609056       17.65843623        6.24320000
     46.35339509       19.86574075        6.24320000
     48.56069962       17.65843623        6.24320000
     50.76800415       19.86574075        6.24320000
     52.97530868       17.65843623        6.24320000
     55.18261320       19.86574075        6.24320000
     57.38991773       17.65843623        6.24320000
     59.59722226       19.86574075        6.24320000
      0.00000000       22.07304528        6.24320000
      2.20730453       24.28034981        6.24320000
      4.41460906       22.07304528        6.24320000
      6.62191358       24.28034981        6.24320000
      8.82921811       22.07304528        6.24320000
     11.03652264       24.28034981        6.24320000
     13.24382717       22.07304528        6.24320000
     15.45113170       24.28034981        6.24320000
     17.65843623       22.07304528        6.24320000
     19.86574075       24.28034981        6.24320000
     22.07304528       22.07304528        6.24320000
     24.28034981       24.28034981        6.24320000
     26.48765434       22.07304528        6.24320000
     28.69495887       24.28034981        6.24320000
     30.90226339       22.07304528        6.24320000
     33.10956792       24.28034981        6.24320000
     35.31687245       22.07304528        6.24320000
     37.52417698       24.28034981        6.24320000
     39.73148151       22.07304528        6.24320000
     41.93878603       24.28034981        6.24320000
     44.14609056       22.07304528        6.24320000
     46.35339509       24.28034981        6.24320000
     48.56069962       22.07304528        6.24320000
     50.76800415       24.28034981        6.24320000
     52.97530868       22.07304528        6.24320000
     55.18261320       24.28034981        6.24320000
     57.38991773       22.07304528        6.24320000
     59.59722226       24.28034981        6.24320000
      0.00000000       26.48765434        6.24320000