# Bcc NiTi alloy oriented X=[100], Y=[010], Z=[001].
1.000000
     62.40000000        0.00000000        0.00000000
      0.00000000       31.20000000        0.00000000
      0.00000000        0.00000000       31.20000000
 Ni  Ti
  2000    2000
Cartesian
      0.00000000        0.00000000        0.00000000
      3.12000000        0.00000000        0.00000000
      6.24000000        0.00000000        0.00000000
      9.36000000        0.00000000        0.00000000
     12.48000000        0.00000000        0.00000000
     15.60000000        0.00000000        0.00000000
     18.72000000        0.00000000        0.00000000
     21.84000000        0.00000000        0.00000000
     24.96000000        0.00000000        0.00000000
     28.08000000        0.00000000        0.00000000
     31.20000000        0.00000000        0.00000000
     34.32000000        0.00000000        0.00000000
     37.44000000        0.00000000        0.00000000
     40.56000000        0.00000000        0.00000000
     43.68000000        0.00000000        0.00000000
     46.80000000        0.00000000        0.00000000
     49.92000000        0.00000000        0.00000000
     53.04000000        0.00000000        0.00000000
     56.16000000        0.00000000        0.00000000
     59.28000000        0.00000000        0.00000000
      0.00000000        3.12000000        0.00000000
      3.12000000        3.12000000        0.00000000
      6.24000000        3.12000000        0.00000000
      9.36000000        3.12000000        0.00000000
     12.48000000        3.12000000        0.00000000
     15.60000000        3.12000000        0.00000000
     18.72000000        3.12000000        0.00000000
     21.84000000        3.12000000        0.00000000
     24.96000000        3.12000000        0.00000000
     28.08000000        3.12000000        0.00000000
     31.20000000        3.12000000        0.00000000
     34.32000000        3.12000000        0.00000000
     37.44000000        3.12000000        0.00000000
     40.56000000        3.12000000        0.00000000
     43.68000000        3.12000000        0.00000000
     46.80000000        3.12000000        0.00000000
     49.92000000        3.12000000        0.00000000
     53.04000000        3.12000000        0.00000000
     56.16000000        3.12000000        0.00000000
     59.28000000        3.12000000        0.00000000
      0.00000000        6.24000000        0.00000000
      3.12000000        6.24000000        0.00000000
      6.24000000        6.24000000        0.00000000
      9.36000000        6.24000000        0.00000000
     12.48000000        6.24000000        0.00000000
     15.60000000        6.24000000        0.00000000
     18.72000000        6.24000000        0.00000000
     21.84000000        6.24000000        0.00000000
     24.96000000        6.24000000        0.00000000
     28.08000000        6.24000000        0.00000000
     31.20000000        6.24000000        0.00000000
     34.32000000        6.24000000        0.00000000
     37.44000000        6.24000000        0.00000000
     40.56000000        6.24000000        0.00000000
     43.68000000        6.24000000        0.00000000
     46.80000000        6.24000000        0.00000000
     49.92000000        6.24000000        0.00000000
     53.04000000        6.24000000        0.00000000
     56.16000000        6.24000000        0.00000000
     59.28000000        6.24000000        0.00000000
      0.00000000        9.36000000        0.00000000
      3.12000000        9.36000000        0.00000000
      6.24000000        9.36000000        0.00000000
      9.36000000        9.36000000        0.00000000
     12.48000000        9.36000000        0.00000000
     15.60000000        9.36000000        0.00000000
     18.72000000        9.36000000        0.00000000
     21.84000000        9.36000000        0.00000000
     24.96000000        9.36000000        0.00000000
     28.08000000        9.36000000        0.00000000
     31.20000000        9.36000000        0.00000000
     34.32000000        9.36000000        0.00000000
     37.44000000        9.36000000        0.00000000
     40.56000000        9.36000000        0.00000000
     43.68000000        9.36000000        0.00000000
     46.80000000        9.36000000        0.00000000
     49.92000000        9.36000000        0.00000000
     53.04000000        9.36000000        0.00000000
     56.16000000        9.36000000        0.00000000
     59.28000000        9.36000000        0.00000000
      0.00000000       12.48000000        0.00000000
      3.12000000       12.48000000        0.00000000
      6.24000000       12.48000000        0.00000000
      9.36000000       12.48000000        0.00000000
     12.48000000       12.48000000        0.00000000
     15.60000000       12.48000000        0.00000000
     18.72000000       12.48000000        0.00000000
     21.84000000       12.48000000        0.00000000
     24.96000000       12.48000000        0.00000000
     28.08000000       12.48000000        0.00000000
     31.20000000       12.48000000        0.00000000
     34.32000000       12.48000000        0.00000000
     37.44000000       12.48000000        0.00000000
     40.56000000       12.48000000        0.00000000
     43.68000000       12.48000000        0.00000000
     46.80000000       12.48000000        0.00000000
     49.92000000       12.48000000        0.00000000
     53.04000000       12.48000000        0.00000000
     56.16000000       12.48000000        0.00000000
     59.28000000       12.48000000        0.00000000
      0.00000000       15.60000000        0.00000000
      3.12000000       15.60000000        0.00000000
      6.24000000       15.60000000        0.00000000
      9.36000000       15.60000000        0.00000000
     12.48000000       15.60000000        0.00000000
     15.60000000       15.60000000        0.00000000
     18.72000000       15.60000000        0.00000000
     21.84000000       15.60000000        0.00000000
     24.96000000       15.60000000        0.00000000
     28.08000000       15.60000000        0.00000000
     31.20000000       15.60000000        0.00000000
     34.32000000       15.60000000        0.00000000
     37.44000000       15.60000000        0.00000000
     40.56000000       15.60000000        0.00000000
     43.68000000       15.60000000        0.00000000
     46.80000000       15.60000000        0.00000000
     49.92000000       15.60000000        0.00000000
     53.04000000       15.60000000        0.00000000
     56.16000000       15.60000000        0.00000000
     59.28000000       15.60000000        0.00000000
      0.00000000       18.72000000        0.00000000
      3.12000000       18.72000000        0.00000000
      6.24000000       18.72000000        0.00000000
      9.36000000       18.72000000        0.00000000
     12.48000000       18.72000000        0.00000000
     15.60000000       18.72000000        0.00000000
     18.72000000       18.72000000        0.00000000
     21.84000000       18.72000000        0.00000000
     24.96000000       18.72000000        0.00000000
     28.08000000       18.72000000        0.00000000
     31.20000000       18.72000000        0.00000000
     34.32000000       18.72000000        0.00000000
     37.44000000       18.72000000        0.00000000
     40.56000000       18.72000000        0.00000000
     43.68000000       18.72000000        0.00000000
     46.80000000       18.72000000        0.00000000
     49.92000000       18.72000000        0.00000000
     53.04000000       18.72000000        0.00000000
     56.16000000       18.72000000        0.00000000
     59.28000000       18.72000000        0.00000000
      0.00000000       21.84000000        0.00000000
      3.12000000       21.84000000        0.00000000
      6.24000000       21.84000000        0.00000000
      9.36000000       21.84000000        0.00000000
     12.48000000       21.84000000        0.00000000
     15.60000000       21.84000000        0.00000000
     18.72000000       21.84000000        0.00000000
     21.84000000       21.84000000        0.00000000
     24.96000000       21.84000000        0.00000000
     28.08000000       21.84000000        0.00000000
     31.20000000       21.84000000        0.00000000
     34.32000000       21.84000000        0.00000000
     37.44000000       21.84000000        0.00000000
     40.56000000       21.84000000        0.00000000
     43.68000000       21.84000000        0.00000000
     46.80000000       21.84000000        0.00000000
     49.92000000       21.84000000        0.00000000
     53.04000000       21.84000000        0.00000000
     56.16000000       21.84000000        0.00000000
     59.28000000       21.84000000        0.00000000
      0.00000000       24.96000000        0.00000000
      3.12000000       24.96000000        0.00000000
      6.24000000       24.96000000        0.00000000
      9.36000000       24.96000000        0.00000000
     12.48000000       24.96000000        0.00000000
     15.60000000       24.96000000        0.00000000
     18.72000000       24.96000000        0.00000000
     21.84000000       24.96000000        0.00000000
     24.96000000       24.96000000        0.00000000
     28.08000000       24.96000000        0.00000000
     31.20000000       24.96000000        0.00000000
     34.32000000       24.96000000        0.00000000
     37.44000000       24.96000000        0.00000000
     40.56000000       24.96000000        0.00000000
     43.68000000       24.96000000        0.00000000
     46.80000000       24.96000000        0.00000000
     49.92000000       24.96000000        0.00000000
     53.04000000       24.96000000        0.00000000
     56.16000000       24.96000000        0.00000000
     59.28000000       24.96000000        0.00000000
      0.00000000       28.08000000        0.00000000
      3.12000000       28.08000000        0.00000000
      6.24000000       28.08000000        0.00000000
      9.36000000       28.08000000        0.00000000
     12.48000000       28.08000000        0.00000000
     15.60000000       28.08000000        0.00000000
     18.72000000       28.08000000        0.00000000
     21.84000000       28.08000000        0.00000000
     24.96000000       28.08000000        0.00000000
     28.08000000       28.08000000        0.00000000
     31.20000000       28.08000000        0.00000000
     34.32000000       28.08000000        0.00000000
     37.44000000       28.08000000        0.00000000
     40.56000000       28.08000000        0.00000000
     43.68000000       28.08000000        0.00000000
     46.80000000       28.08000000        0.00000000
     49.92000000       28.08000000        0.00000000
     53.04000000       28.08000000        0.00000000
     56.16000000       28.08000000        0.00000000
     59.28000000       28.08000000        0.00000000
      0.00000000        0.00000000        3.12000000
      3.12000000        0.00000000        3.12000000
      6.24000000        0.00000000        3.12000000
      9.36000000        0.00000000        3.12000000
     12.48000000        0.00000000        3.12000000
     15.60000000        0.00000000        3.12000000
     18.72000000        0.00000000        3.12000000
     21.84000000        0.00000000        3.12000000
     24.96000000        0.00000000        3.12000000
     28.08000000        0.00000000        3.12000000
     31.20000000        0.00000000        3.12000000
     34.32000000        0.00000000        3.12000000
     37.44000000        0.00000000        3.12000000
     40.56000000        0.00000000        3.12000000
     43.68000000        0.00000000        3.12000000
     46.80000000        0.00000000        3.12000000
     49.92000000        0.00000000        3.12000000
     53.04000000        0.00000000        3.12000000
     56.16000000        0.00000000        3.12000000
     59.28000000        0.00000000        3.12000000
      0.00000000        3.12000000        3.12000000
      3.12000000        3.12000000        3.12000000
      6.24000000        3.12000000        3.12000000
      9.36000000        3.12000000        3.12000000
     12.48000000        3.12000000        3.12000000
     15.60000000        3.12000000        3.12000000
     18.72000000        3.12000000        3.12000000
     21.84000000        3.12000000        3.12000000
     24.96000000        3.12000000        3.12000000
     28.08000000        3.12000000        3.12000000
     31.20000000        3.12000000        3.12000000
     34.32000000        3.12000000        3.12000000
     37.44000000        3.12000000        3.12000000
     40.56000000        3.12000000        3.12000000
     43.68000000        3.12000000        3.12000000
     46.80000000        3.12000000        3.12000000
     49.92000000        3.12000000        3.12000000
     53.04000000        3.12000000        3.12000000
     56.16000000        3.12000000        3.12000000
     59.28000000        3.12000000        3.12000000
      0.00000000        6.24000000        3.12000000
      3.12000000        6.24000000        3.12000000
      6.24000000        6.24000000        3.12000000
      9.36000000        6.24000000        3.12000000
     12.48000000        6.24000000        3.12000000
     15.60000000        6.24000000        3.12000000
     18.72000000        6.24000000        3.12000000
     21.84000000        6.24000000        3.12000000
     24.96000000        6.24000000        3.12000000
     28.08000000        6.24000000        3.12000000
     31.20000000        6.24000000        3.12000000
     34.32000000        6.24000000        3.12000000
     37.44000000        6.24000000        3.12000000
     40.56000000        6.24000000        3.12000000
     43.68000000        6.24000000        3.12000000
     46.80000000        6.24000000        3.12000000
     49.92000000        6.24000000        3.12000000
     53.04000000        6.24000000        3.12000000
     56.16000000        6.24000000        3.12000000
     59.28000000        6.24000000        3.12000000
      0.00000000        9.36000000        3.12000000
      3.12000000        9.36000000        3.12000000
      6.24000000        9.36000000        3.12000000
      9.36000000        9.36000000        3.12000000
     12.48000000        9.36000000        3.12000000
     15.60000000        9.36000000        3.12000000
     18.72000000        9.36000000        3.12000000
     21.84000000        9.36000000        3.12000000
     24.96000000        9.36000000        3.12000000
     28.08000000        9.36000000        3.12000000
     31.20000000        9.36000000        3.12000000
     34.32000000        9.36000000        3.12000000
     37.44000000        9.36000000        3.12000000
     40.56000000        9.36000000        3.12000000
     43.68000000        9.36000000        3.12000000
     46.80000000        9.36000000        3.12000000
     49.92000000        9.36000000        3.12000000
     53.04000000        9.36000000        3.12000000
     56.16000000        9.36000000        3.12000000
     59.28000000        9.36000000        3.12000000
      0.00000000       12.48000000        3.12000000
      3.12000000       12.48000000        3.12000000
      6.24000000       12.48000000        3.12000000
      9.36000000       12.48000000        3.12000000
     12.48000000       12.48000000        3.12000000
     15.60000000       12.48000000        3.12000000
     18.72000000       12.48000000        3.12000000
     21.84000000       12.48000000        3.12000000
     24.96000000       12.48000000        3.12000000
     28.08000000       12.48000000        3.12000000
     31.20000000       12.48000000        3.12000000
     34.32000000       12.48000000        3.12000000
     37.44000000       12.48000000        3.12000000
     40.56000000       12.48000000        3.12000000
     43.68000000       12.48000000        3.12000000
     46.80000000       12.48000000        3.12000000
     49.92000000       12.48000000        3.12000000
     53.04000000       12.48000000        3.12000000
     56.16000000       12.48000000        3.12000000
     59.28000000       12.48000000        3.12000000
      0.00000000       15.60000000        3.12000000
      3.12000000       15.60000000        3.12000000
      6.24000000       15.60000000        3.12000000
      9.36000000       15.60000000        3.12000000
     12.48000000       15.60000000        3.12000000
     15.60000000       15.60000000        3.12000000
     18.72000000       15.60000000        3.12000000
     21.84000000       15.60000000        3.12000000
     24.96000000       15.60000000        3.12000000
     28.08000000       15.60000000        3.12000000
     31.20000000       15.60000000        3.12000000
     34.32000000       15.60000000        3.12000000
     37.44000000       15.60000000        3.12000000
     40.56000000       15.60000000        3.12000000
     43.68000000       15.60000000        3.12000000
     46.80000000       15.60000000        3.12000000
     49.92000000       15.60000000        3.12000000
     53.04000000       15.60000000        3.12000000
     56.16000000       15.60000000        3.12000000
     59.28000000       15.60000000        3.12000000
      0.00000000       18.72000000        3.12000000
      3.12000000       18.72000000        3.12000000
      6.24000000       18.72000000        3.12000000
      9.36000000       18.72000000        3.12000000
     12.48000000       18.72000000        3.12000000
     15.60000000       18.72000000        3.12000000
     18.72000000       18.72000000        3.12000000
     21.84000000       18.72000000        3.12000000
     24.96000000       18.72000000        3.12000000
     28.08000000       18.72000000        3.12000000
     31.20000000       18.72000000        3.12000000
     34.32000000       18.72000000        3.12000000
     37.44000000       18.72000000        3.12000000
     40.56000000       18.72000000        3.12000000
     43.68000000       18.72000000        3.12000000
     46.80000000       18.72000000        3.12000000
     49.92000000       18.72000000        3.12000000
     53.04000000       18.72000000        3.12000000
     56.16000000       18.72000000        3.12000000
     59.28000000       18.72000000        3.12000000
      0.00000000       21.84000000        3.12000000
      3.12000000       21.84000000        3.12000000
      6.24000000       21.84000000        3.12000000
      9.36000000       21.84000000        3.12000000
     12.48000000       21.84000000        3.12000000
     15.60000000       21.84000000        3.12000000
     18.72000000       21.84000000        3.12000000
     21.84000000       21.84000000        3.12000000
     24.96000000       21.84000000        3.12000000
     28.08000000       21.84000000        3.12000000
     31.20000000       21.84000000        3.12000000
     34.32000000       21.84000000        3.12000000
     37.44000000       21.84000000        3.12000000
     40.56000000       21.84000000        3.12000000
     43.68000000       21.84000000        3.12000000
     46.80000000       21.84000000        3.12000000
     49.92000000       21.84000000        3.12000000
     53.04000000       21.84000000        3.12000000
     56.16000000       21.84000000        3.12000000
     59.28000000       21.84000000        3.12000000
      0.00000000       24.96000000        3.12000000
      3.12000000       24.96000000        3.12000000
      6.24000000       24.96000000        3.12000000
      9.36000000       24.96000000        3.12000000
     12.48000000       24.96000000        3.12000000
     15.60000000       24.96000000        3.12000000
     18.72000000       24.96000000        3.12000000
     21.84000000       24.96000000        3.12000000
     24.96000000       24.96000000        3.12000000
     28.08000000       24.96000000        3.12000000
     31.20000000       24.96000000        3.12000000
     34.32000000       24.96000000        3.12000000
     37.44000000       24.96000000        3.12000000
     40.56000000       24.96000000        3.12000000
     43.68000000       24.96000000        3.12000000
     46.80000000       24.96000000        3.12000000
     49.92000000       24.96000000        3.12000000
     53.04000000       24.96000000        3.12000000
     56.16000000       24.96000000        3.12000000
     59.28000000       24.96000000        3.12000000
      0.00000000       28.08000000        3.12000000
      3.12000000       28.08000000        3.12000000
      6.24000000       28.08000000        3.12000000
      9.36000000       28.08000000        3.12000000
     12.48000000       28.08000000        3.12000000
     15.60000000       28.08000000        3.12000000
     18.72000000       28.08000000        3.12000000
     21.84000000       28.08000000        3.12000000
     24.96000000       28.08000000        3.12000000
     28.08000000       28.08000000        3.12000000
     31.20000000       28.08000000        3.12000000
     34.32000000       28.08000000        3.12000000
     37.44000000       28.08000000        3.12000000
     40.56000000       28.08000000        3.12000000
     43.68000000       28.08000000        3.12000000
     46.80000000       28.08000000        3.12000000
     49.92000000       28.08000000        3.12000000
     53.04000000       28.08000000        3.12000000
     56.16000000       28.08000000        3.12000000
     59.28000000       28.08000000        3.12000000
      0.00000000        0.00000000        6.24000000
      3.12000000        0.00000000        6.24000000
      6.24000000        0.00000000        6.24000000
      9.36000000        0.00000000        6.24000000
     12.48000000        0.00000000        6.24000000
     15.60000000        0.00000000        6.24000000
     18.72000000        0.00000000        6.24000000
     21.84000000        0.00000000        6.24000000
     24.96000000        0.00000000        6.24000000
     28.08000000        0.00000000        6.24000000
     31.20000000        0.00000000        6.24000000
     34.32000000        0.00000000        6.24000000
     37.44000000        0.00000000        6.24000000
     40.56000000        0.00000000        6.24000000
     43.68000000        0.00000000        6.24000000
     46.80000000        0.00000000        6.24000000
     49.92000000        0.00000000        6.24000000
     53.04000000        0.00000000        6.24000000
     56.16000000        0.00000000        6.24000000
     59.28000000        0.00000000        6.24000000
      0.00000000        3.12000000        6.24000000
      3.12000000        3.12000000        6.24000000
      6.24000000        3.12000000        6.24000000
      9.36000000        3.12000000        6.24000000
     12.48000000        3.12000000        6.24000000
     15.60000000        3.12000000        6.24000000
     18.72000000        3.12000000        6.24000000
     21.84000000        3.12000000        6.24000000
     24.96000000        3.12000000        6.24000000
     28.08000000        3.12000000        6.24000000
     31.20000000        3.12000000        6.24000000
     34.32000000        3.12000000        6.24000000
     37.44000000        3.12000000        6.24000000
     40.56000000        3.12000000        6.24000000
     43.68000000        3.12000000        6.24000000
     46.80000000        3.12000000        6.24000000
     49.92000000        3.12000000        6.24000000
     53.04000000        3.12000000        6.24000000
     56.16000000        3.12000000        6.24000000
     59.28000000        3.12000000        6.24000000
      0.00000000        6.24000000        6.24000000
      3.12000000        6.24000000        6.24000000
      6.24000000        6.24000000        6.24000000
      9.36000000        6.24000000        6.24000000
     12.48000000        6.24000000        6.24000000
     15.60000000        6.24000000        6.24000000
     18.72000000        6.24000000        6.24000000
     21.84000000        6.24000000        6.24000000
     24.96000000        6.24000000        6.24000000
     28.08000000        6.24000000        6.24000000
     31.20000000        6.24000000        6.24000000
     34.32000000        6.24000000        6.24000000
     37.44000000        6.24000000        6.24000000
     40.56000000        6.24000000        6.24000000
     43.68000000        6.24000000        6.24000000
     46.80000000        6.24000000        6.24000000
     49.92000000        6.24000000        6.24000000
     53.04000000        6.24000000        6.24000000
     56.16000000        6.24000000        6.24000000
     59.28000000        6.24000000        6.24000000
      0.00000000        9.36000000        6.24000000
      3.12000000        9.36000000        6.24000000
      6.24000000        9.36000000        6.24000000
      9.36000000        9.36000000        6.24000000
     12.48000000        9.36000000        6.24000000
     15.60000000        9.36000000        6.24000000
     18.72000000        9.36000000        6.24000000
     21.84000000        9.36000000        6.24000000
     24.96000000        9.36000000        6.24000000
     28.08000000        9.36000000        6.24000000
     31.20000000        9.36000000        6.24000000
     34.32000000        9.36000000        6.24000000
     37.44000000        9.36000000        6.24000000
     40.56000000        9.36000000        6.24000000
     43.68000000        9.36000000        6.24000000
     46.80000000        9.36000000        6.24000000
     49.92000000        9.36000000        6.24000000
     53.04000000        9.36000000        6.24000000
     56.16000000        9.36000000        6.24000000
     59.28000000        9.36000000        6.24000000
      0.00000000       12.48000000        6.24000000
      3.12000000       12.48000000        6.24000000
      6.24000000       12.48000000        6.24000000
      9.36000000       12.48000000        6.24000000
     12.48000000       12.48000000        6.24000000
     15.60000000       12.48000000        6.24000000
     18.72000000       12.48000000        6.24000000
     21.84000000       12.48000000        6.24000000
     24.96000000       12.48000000        6.24000000
     28.08000000       12.48000000        6.24000000
     31.20000000       12.48000000        6.24000000
     34.32000000       12.48000000        6.24000000
     37.44000000       12.48000000        6.24000000
     40.56000000       12.48000000        6.24000000
     43.68000000       12.48000000        6.24000000
     46.80000000       12.48000000        6.24000000
     49.92000000       12.48000000        6.24000000
     53.04000000       12.48000000        6.24000000
     56.16000000       12.48000000        6.24000000
     59.28000000       12.48000000        6.24000000
      0.00000000       15.60000000        6.24000000
      3.12000000       15.60000000        6.24000000
      6.24000000       15.60000000        6.24000000
      9.36000000       15.60000000        6.24000000
     12.48000000       15.60000000        6.24000000
     15.60000000       15.60000000        6.24000000
     18.72000000       15.60000000        6.24000000
     21.84000000       15.60000000        6.24000000
     24.96000000       15.60000000        6.24000000
     28.08000000       15.60000000        6.24000000
     31.20000000       15.60000000        6.24000000
     34.32000000       15.60000000        6.24000000
     37.44000000       15.60000000        6.24000000
     40.56000000       15.60000000        6.24000000
     43.68000000       15.60000000        6.24000000
     46.80000000       15.60000000        6.24000000
     49.92000000       15.60000000        6.24000000
     53.04000000       15.60000000        6.24000000
     56.16000000       15.60000000        6.24000000
     59.28000000       15.60000000        6.24000000
      0.00000000       18.72000000        6.24000000
      3.12000000       18.72000000        6.24000000
      6.24000000       18.72000000        6.24000000
      9.36000000       18.72000000        6.24000000
     12.48000000       18.72000000        6.24000000
     15.60000000       18.72000000        6.24000000
     18.72000000       18.72000000        6.24000000
     21.84000000       18.72000000        6.24000000
     24.96000000       18.72000000        6.24000000
     28.08000000       18.72000000        6.24000000
     31.20000000       18.72000000        6.24000000
     34.32000000       18.72000000        6.24000000
     37.44000000       18.72000000        6.24000000
     40.56000000       18.72000000        6.24000000
     43.68000000       18.72000000        6.24000000
     46.80000000       18.72000000        6.24000000
     49.92000000       18.72000000        6.24000000
     53.04000000       18.72000000        6.24000000
     56.16000000       18.72000000        6.24000000
     59.28000000       18.72000000        6.24000000
      0.00000000       21.84000000        6.24000000
      3.12000000       21.84000000        6.24000000
      6.24000000       21.84000000        6.24000000
      9.36000000       21.84000000        6.24000000
     12.48000000       21.84000000        6.24000000
     15.60000000       21.84000000        6.24000000
     18.72000000       21.84000000        6.24000000
     21.84000000       21.84000000        6.24000000
     24.96000000       21.84000000        6.24000000
     28.08000000       21.84000000        6.24000000
     31.20000000       21.84000000        6.24000000
     34.32000000       21.84000000        6.24000000
     37.44000000       21.84000000        6.24000000
     40.56000000       21.84000000        6.24000000
     43.68000000       21.84000000        6.24000000
     46.80000000       21.84000000        6.24000000
     49.92000000       21.84000000        6.24000000
     53.04000000       21.84000000        6.24000000
     56.16000000       21.84000000        6.24000000
     59.28000000       21.84000000        6.24000000
      0.00000000       24.96000000        6.24000000