# Bcc NiTi alloy oriented X=[100] Y=[010] Z=[001].
1.000000
     12.51200000        0.00000000        0.00000000
      0.00000000       12.51200000        0.00000000
      0.00000000        0.00000000       12.51200000
 Ni  Ti
    64      64
Cartesian
      0.00000000        0.00000000        0.00000000
      3.12800000        0.00000000        0.00000000
      6.25600000        0.00000000        0.00000000
      9.38400000        0.00000000        0.00000000
      0.00000000        3.12800000        0.00000000
      3.12800000        3.12800000        0.00000000
      6.25600000        3.12800000        0.00000000
      9.38400000        3.12800000        0.00000000
      0.00000000        6.25600000        0.00000000
      3.12800000        6.25600000        0.00000000
      6.25600000        6.25600000        0.00000000
      9.38400000        6.25600000        0.00000000
      0.00000000        9.38400000        0.00000000
      3.12800000        9.38400000        0.00000000
      6.25600000        9.38400000        0.00000000
      9.38400000        9.38400000        0.00000000
      0.00000000        0.00000000        3.12800000
      3.12800000        0.00000000        3.12800000
      6.25600000        0.00000000        3.12800000
      9.38400000        0.00000000        3.12800000
      0.00000000        3.12800000        3.12800000
      3.12800000        3.12800000        3.12800000
      6.25600000        3.12800000        3.12800000
      9.38400000        3.12800000        3.12800000
      0.00000000        6.25600000        3.12800000
      3.12800000        6.25600000        3.12800000
      6.25600000        6.25600000        3.12800000
      9.38400000        6.25600000        3.12800000
      0.00000000        9.38400000        3.12800000
      3.12800000        9.38400000        3.12800000
      6.25600000        9.38400000        3.12800000
      9.38400000        9.38400000        3.12800000
      0.00000000        0.00000000        6.25600000
      3.12800000        0.00000000        6.25600000
      6.25600000        0.00000000        6.25600000
      9.38400000        0.00000000        6.25600000
      0.00000000        3.12800000        6.25600000
      3.12800000        3.12800000        6.25600000
      6.25600000        3.12800000        6.25600000
      9.38400000        3.12800000        6.25600000
      0.00000000        6.25600000        6.25600000
      3.12800000        6.25600000        6.25600000
      6.25600000        6.25600000        6.25600000
      9.38400000        6.25600000        6.25600000
      0.00000000        9.38400000        6.25600000
      3.12800000        9.38400000        6.25600000
      6.25600000        9.38400000        6.25600000
      9.38400000        9.38400000        6.25600000
      0.00000000        0.00000000        9.38400000
      3.12800000        0.00000000        9.38400000
      6.25600000        0.00000000        9.38400000
      9.38400000        0.00000000        9.38400000
      0.00000000        3.12800000        9.38400000
      3.12800000        3.12800000        9.38400000
      6.25600000        3.12800000        9.38400000
      9.38400000        3.12800000        9.38400000
      0.00000000        6.25600000        9.38400000
      3.12800000        6.25600000        9.38400000
      6.25600000        6.25600000        9.38400000
      9.38400000        6.25600000        9.38400000
      0.00000000        9.38400000        9.38400000
      3.12800000        9.38400000        9.38400000
      6.25600000        9.38400000        9.38400000
      9.38400000        9.38400000        9.38400000
      1.56400000        1.56400000        1.56400000
      4.69200000        1.56400000        1.56400000
      7.82000000        1.56400000        1.56400000
     10.94800000        1.56400000        1.56400000
      1.56400000        4.69200000        1.56400000
      4.69200000        4.69200000        1.56400000
      7.82000000        4.69200000        1.56400000
     10.94800000        4.69200000        1.56400000
      1.56400000        7.82000000        1.56400000
      4.69200000        7.82000000        1.56400000
      7.82000000        7.82000000        1.56400000
     10.94800000        7.82000000        1.56400000
      1.56400000       10.94800000        1.56400000
      4.69200000       10.94800000        1.56400000
      7.82000000       10.94800000        1.56400000
     10.94800000       10.94800000        1.56400000
      1.56400000        1.56400000        4.69200000
      4.69200000        1.56400000        4.69200000
      7.82000000        1.56400000        4.69200000
     10.94800000        1.56400000        4.69200000
      1.56400000        4.69200000        4.69200000
      4.69200000        4.69200000        4.69200000
      7.82000000        4.69200000        4.69200000
     10.94800000        4.69200000        4.69200000
      1.56400000        7.82000000        4.69200000
      4.69200000        7.82000000        4.69200000
      7.82000000        7.82000000        4.69200000
     10.94800000        7.82000000        4.69200000
      1.56400000       10.94800000        4.69200000
      4.69200000       10.94800000        4.69200000
      7.82000000       10.94800000        4.69200000
     10.94800000       10.94800000        4.69200000
      1.56400000        1.56400000        7.82000000
      4.69200000        1.56400000        7.82000000
      7.82000000        1.56400000        7.82000000
     10.94800000        1.56400000        7.82000000
      1.56400000        4.69200000        7.82000000
      4.69200000        4.69200000        7.82000000
      7.82000000        4.69200000        7.82000000
     10.94800000        4.69200000        7.82000000
      1.56400000        7.82000000        7.82000000
      4.69200000        7.82000000        7.82000000
      7.82000000        7.82000000        7.82000000
     10.94800000        7.82000000        7.82000000
      1.56400000       10.94800000        7.82000000
      4.69200000       10.94800000        7.82000000
      7.82000000       10.94800000        7.82000000
     10.94800000       10.94800000        7.82000000
      1.56400000        1.56400000       10.94800000
      4.69200000        1.56400000       10.94800000
      7.82000000        1.56400000       10.94800000
     10.94800000        1.56400000       10.94800000
      1.56400000        4.69200000       10.94800000
      4.69200000        4.69200000       10.94800000
      7.82000000        4.69200000       10.94800000
     10.94800000        4.69200000       10.94800000
      1.56400000        7.82000000       10.94800000
      4.69200000        7.82000000       10.94800000
      7.82000000        7.82000000       10.94800000
     10.94800000        7.82000000       10.94800000
      1.56400000       10.94800000       10.94800000
      4.69200000       10.94800000       10.94800000
      7.82000000       10.94800000       10.94800000
     10.94800000       10.94800000       10.94800000
