# Bcc NiTi alloy oriented X=[110], Y=[1-10], Z=[001].
1.000000
     61.77284840        0.00000000        0.00000000
      0.00000000       30.88642420        0.00000000
      0.00000000        0.00000000       31.20000000
 Ni  Ti
  1960    1960
Cartesian
      0.00000000        0.00000000        0.00000000
      2.20617316        2.20617316        0.00000000
      4.41234631        0.00000000        0.00000000
      6.61851947        2.20617316        0.00000000
      8.82469263        0.00000000        0.00000000
     11.03086579        2.20617316        0.00000000
     13.23703894        0.00000000        0.00000000
     15.44321210        2.20617316        0.00000000
     17.64938526        0.00000000        0.00000000
     19.85555842        2.20617316        0.00000000
     22.06173157        0.00000000        0.00000000
     24.26790473        2.20617316        0.00000000
     26.47407789        0.00000000        0.00000000
     28.68025104        2.20617316        0.00000000
     30.88642420        0.00000000        0.00000000
     33.09259736        2.20617316        0.00000000
     35.29877052        0.00000000        0.00000000
     37.50494367        2.20617316        0.00000000
     39.71111683        0.00000000        0.00000000
     41.91728999        2.20617316        0.00000000
     44.12346315        0.00000000        0.00000000
     46.32963630        2.20617316        0.00000000
     48.53580946        0.00000000        0.00000000
     50.74198262        2.20617316        0.00000000
     52.94815578        0.00000000        0.00000000
     55.15432893        2.20617316        0.00000000
     57.36050209        0.00000000        0.00000000
     59.56667525        2.20617316        0.00000000
      0.00000000        4.41234631        0.00000000
      2.20617316        6.61851947        0.00000000
      4.41234631        4.41234631        0.00000000
      6.61851947        6.61851947        0.00000000
      8.82469263        4.41234631        0.00000000
     11.03086579        6.61851947        0.00000000
     13.23703894        4.41234631        0.00000000
     15.44321210        6.61851947        0.00000000
     17.64938526        4.41234631        0.00000000
     19.85555842        6.61851947        0.00000000
     22.06173157        4.41234631        0.00000000
     24.26790473        6.61851947        0.00000000
     26.47407789        4.41234631        0.00000000
     28.68025104        6.61851947        0.00000000
     30.88642420        4.41234631        0.00000000
     33.09259736        6.61851947        0.00000000
     35.29877052        4.41234631        0.00000000
     37.50494367        6.61851947        0.00000000
     39.71111683        4.41234631        0.00000000
     41.91728999        6.61851947        0.00000000
     44.12346315        4.41234631        0.00000000
     46.32963630        6.61851947        0.00000000
     48.53580946        4.41234631        0.00000000
     50.74198262        6.61851947        0.00000000
     52.94815578        4.41234631        0.00000000
     55.15432893        6.61851947        0.00000000
     57.36050209        4.41234631        0.00000000
     59.56667525        6.61851947        0.00000000
      0.00000000        8.82469263        0.00000000
      2.20617316       11.03086579        0.00000000
      4.41234631        8.82469263        0.00000000
      6.61851947       11.03086579        0.00000000
      8.82469263        8.82469263        0.00000000
     11.03086579       11.03086579        0.00000000
     13.23703894        8.82469263        0.00000000
     15.44321210       11.03086579        0.00000000
     17.64938526        8.82469263        0.00000000
     19.85555842       11.03086579        0.00000000
     22.06173157        8.82469263        0.00000000
     24.26790473       11.03086579        0.00000000
     26.47407789        8.82469263        0.00000000
     28.68025104       11.03086579        0.00000000
     30.88642420        8.82469263        0.00000000
     33.09259736       11.03086579        0.00000000
     35.29877052        8.82469263        0.00000000
     37.50494367       11.03086579        0.00000000
     39.71111683        8.82469263        0.00000000
     41.91728999       11.03086579        0.00000000
     44.12346315        8.82469263        0.00000000
     46.32963630       11.03086579        0.00000000
     48.53580946        8.82469263        0.00000000
     50.74198262       11.03086579        0.00000000
     52.94815578        8.82469263        0.00000000
     55.15432893       11.03086579        0.00000000
     57.36050209        8.82469263        0.00000000
     59.56667525       11.03086579        0.00000000
      0.00000000       13.23703894        0.00000000
      2.20617316       15.44321210        0.00000000
      4.41234631       13.23703894        0.00000000
      6.61851947       15.44321210        0.00000000
      8.82469263       13.23703894        0.00000000
     11.03086579       15.44321210        0.00000000
     13.23703894       13.23703894        0.00000000
     15.44321210       15.44321210        0.00000000
     17.64938526       13.23703894        0.00000000
     19.85555842       15.44321210        0.00000000
     22.06173157       13.23703894        0.00000000
     24.26790473       15.44321210        0.00000000
     26.47407789       13.23703894        0.00000000
     28.68025104       15.44321210        0.00000000
     30.88642420       13.23703894        0.00000000
     33.09259736       15.44321210        0.00000000
     35.29877052       13.23703894        0.00000000
     37.50494367       15.44321210        0.00000000
     39.71111683       13.23703894        0.00000000
     41.91728999       15.44321210        0.00000000
     44.12346315       13.23703894        0.00000000
     46.32963630       15.44321210        0.00000000
     48.53580946       13.23703894        0.00000000
     50.74198262       15.44321210        0.00000000
     52.94815578       13.23703894        0.00000000
     55.15432893       15.44321210        0.00000000
     57.36050209       13.23703894        0.00000000
     59.56667525       15.44321210        0.00000000
      0.00000000       17.64938526        0.00000000
      2.20617316       19.85555842        0.00000000
      4.41234631       17.64938526        0.00000000
      6.61851947       19.85555842        0.00000000
      8.82469263       17.64938526        0.00000000
     11.03086579       19.85555842        0.00000000
     13.23703894       17.64938526        0.00000000
     15.44321210       19.85555842        0.00000000
     17.64938526       17.64938526        0.00000000
     19.85555842       19.85555842        0.00000000
     22.06173157       17.64938526        0.00000000
     24.26790473       19.85555842        0.00000000
     26.47407789       17.64938526        0.00000000
     28.68025104       19.85555842        0.00000000
     30.88642420       17.64938526        0.00000000
     33.09259736       19.85555842        0.00000000
     35.29877052       17.64938526        0.00000000
     37.50494367       19.85555842        0.00000000
     39.71111683       17.64938526        0.00000000
     41.91728999       19.85555842        0.00000000
     44.12346315       17.64938526        0.00000000
     46.32963630       19.85555842        0.00000000
     48.53580946       17.64938526        0.00000000
     50.74198262       19.85555842        0.00000000
     52.94815578       17.64938526        0.00000000
     55.15432893       19.85555842        0.00000000
     57.36050209       17.64938526        0.00000000
     59.56667525       19.85555842        0.00000000
      0.00000000       22.06173157        0.00000000
      2.20617316       24.26790473        0.00000000
      4.41234631       22.06173157        0.00000000
      6.61851947       24.26790473        0.00000000
      8.82469263       22.06173157        0.00000000
     11.03086579       24.26790473        0.00000000
     13.23703894       22.06173157        0.00000000
     15.44321210       24.26790473        0.00000000
     17.64938526       22.06173157        0.00000000
     19.85555842       24.26790473        0.00000000
     22.06173157       22.06173157        0.00000000
     24.26790473       24.26790473        0.00000000
     26.47407789       22.06173157        0.00000000
     28.68025104       24.26790473        0.00000000
     30.88642420       22.06173157        0.00000000
     33.09259736       24.26790473        0.00000000
     35.29877052       22.06173157        0.00000000
     37.50494367       24.26790473        0.00000000
     39.71111683       22.06173157        0.00000000
     41.91728999       24.26790473        0.00000000
     44.12346315       22.06173157        0.00000000
     46.32963630       24.26790473        0.00000000
     48.53580946       22.06173157        0.00000000
     50.74198262       24.26790473        0.00000000
     52.94815578       22.06173157        0.00000000
     55.15432893       24.26790473        0.00000000
     57.36050209       22.06173157        0.00000000
     59.56667525       24.26790473        0.00000000
      0.00000000       26.47407789        0.00000000
      2.20617316       28.68025104        0.00000000
      4.41234631       26.47407789        0.00000000
      6.61851947       28.68025104        0.00000000
      8.82469263       26.47407789        0.00000000
     11.03086579       28.68025104        0.00000000
     13.23703894       26.47407789        0.00000000
     15.44321210       28.68025104        0.00000000
     17.64938526       26.47407789        0.00000000
     19.85555842       28.68025104        0.00000000
     22.06173157       26.47407789        0.00000000
     24.26790473       28.68025104        0.00000000
     26.47407789       26.47407789        0.00000000
     28.68025104       28.68025104        0.00000000
     30.88642420       26.47407789        0.00000000
     33.09259736       28.68025104        0.00000000
     35.29877052       26.47407789        0.00000000
     37.50494367       28.68025104        0.00000000
     39.71111683       26.47407789        0.00000000
     41.91728999       28.68025104        0.00000000
     44.12346315       26.47407789        0.00000000
     46.32963630       28.68025104        0.00000000
     48.53580946       26.47407789        0.00000000
     50.74198262       28.68025104        0.00000000
     52.94815578       26.47407789        0.00000000
     55.15432893       28.68025104        0.00000000
     57.36050209       26.47407789        0.00000000
     59.56667525       28.68025104        0.00000000
      0.00000000        0.00000000        3.12000000
      2.20617316        2.20617316        3.12000000
      4.41234631        0.00000000        3.12000000
      6.61851947        2.20617316        3.12000000
      8.82469263        0.00000000        3.12000000
     11.03086579        2.20617316        3.12000000
     13.23703894        0.00000000        3.12000000
     15.44321210        2.20617316        3.12000000
     17.64938526        0.00000000        3.12000000
     19.85555842        2.20617316        3.12000000
     22.06173157        0.00000000        3.12000000
     24.26790473        2.20617316        3.12000000
     26.47407789        0.00000000        3.12000000
     28.68025104        2.20617316        3.12000000
     30.88642420        0.00000000        3.12000000
     33.09259736        2.20617316        3.12000000
     35.29877052        0.00000000        3.12000000
     37.50494367        2.20617316        3.12000000
     39.71111683        0.00000000        3.12000000
     41.91728999        2.20617316        3.12000000
     44.12346315        0.00000000        3.12000000
     46.32963630        2.20617316        3.12000000
     48.53580946        0.00000000        3.12000000
     50.74198262        2.20617316        3.12000000
     52.94815578        0.00000000        3.12000000
     55.15432893        2.20617316        3.12000000
     57.36050209        0.00000000        3.12000000
     59.56667525        2.20617316        3.12000000
      0.00000000        4.41234631        3.12000000
      2.20617316        6.61851947        3.12000000
      4.41234631        4.41234631        3.12000000
      6.61851947        6.61851947        3.12000000
      8.82469263        4.41234631        3.12000000
     11.03086579        6.61851947        3.12000000
     13.23703894        4.41234631        3.12000000
     15.44321210        6.61851947        3.12000000
     17.64938526        4.41234631        3.12000000
     19.85555842        6.61851947        3.12000000
     22.06173157        4.41234631        3.12000000
     24.26790473        6.61851947        3.12000000
     26.47407789        4.41234631        3.12000000
     28.68025104        6.61851947        3.12000000
     30.88642420        4.41234631        3.12000000
     33.09259736        6.61851947        3.12000000
     35.29877052        4.41234631        3.12000000
     37.50494367        6.61851947        3.12000000
     39.71111683        4.41234631        3.12000000
     41.91728999        6.61851947        3.12000000
     44.12346315        4.41234631        3.12000000
     46.32963630        6.61851947        3.12000000
     48.53580946        4.41234631        3.12000000
     50.74198262        6.61851947        3.12000000
     52.94815578        4.41234631        3.12000000
     55.15432893        6.61851947        3.12000000
     57.36050209        4.41234631        3.12000000
     59.56667525        6.61851947        3.12000000
      0.00000000        8.82469263        3.12000000
      2.20617316       11.03086579        3.12000000
      4.41234631        8.82469263        3.12000000
      6.61851947       11.03086579        3.12000000
      8.82469263        8.82469263        3.12000000
     11.03086579       11.03086579        3.12000000
     13.23703894        8.82469263        3.12000000
     15.44321210       11.03086579        3.12000000
     17.64938526        8.82469263        3.12000000
     19.85555842       11.03086579        3.12000000
     22.06173157        8.82469263        3.12000000
     24.26790473       11.03086579        3.12000000
     26.47407789        8.82469263        3.12000000
     28.68025104       11.03086579        3.12000000
     30.88642420        8.82469263        3.12000000
     33.09259736       11.03086579        3.12000000
     35.29877052        8.82469263        3.12000000
     37.50494367       11.03086579        3.12000000
     39.71111683        8.82469263        3.12000000
     41.91728999       11.03086579        3.12000000
     44.12346315        8.82469263        3.12000000
     46.32963630       11.03086579        3.12000000
     48.53580946        8.82469263        3.12000000
     50.74198262       11.03086579        3.12000000
     52.94815578        8.82469263        3.12000000
     55.15432893       11.03086579        3.12000000
     57.36050209        8.82469263        3.12000000
     59.56667525       11.03086579        3.12000000
      0.00000000       13.23703894        3.12000000
      2.20617316       15.44321210        3.12000000
      4.41234631       13.23703894        3.12000000
      6.61851947       15.44321210        3.12000000
      8.82469263       13.23703894        3.12000000
     11.03086579       15.44321210        3.12000000
     13.23703894       13.23703894        3.12000000
     15.44321210       15.44321210        3.12000000
     17.64938526       13.23703894        3.12000000
     19.85555842       15.44321210        3.12000000
     22.06173157       13.23703894        3.12000000
     24.26790473       15.44321210        3.12000000
     26.47407789       13.23703894        3.12000000
     28.68025104       15.44321210        3.12000000
     30.88642420       13.23703894        3.12000000
     33.09259736       15.44321210        3.12000000
     35.29877052       13.23703894        3.12000000
     37.50494367       15.44321210        3.12000000
     39.71111683       13.23703894        3.12000000
     41.91728999       15.44321210        3.12000000
     44.12346315       13.23703894        3.12000000
     46.32963630       15.44321210        3.12000000
     48.53580946       13.23703894        3.12000000
     50.74198262       15.44321210        3.12000000
     52.94815578       13.23703894        3.12000000
     55.15432893       15.44321210        3.12000000
     57.36050209       13.23703894        3.12000000
     59.56667525       15.44321210        3.12000000
      0.00000000       17.64938526        3.12000000
      2.20617316       19.85555842        3.12000000
      4.41234631       17.64938526        3.12000000
      6.61851947       19.85555842        3.12000000
      8.82469263       17.64938526        3.12000000
     11.03086579       19.85555842        3.12000000
     13.23703894       17.64938526        3.12000000
     15.44321210       19.85555842        3.12000000
     17.64938526       17.64938526        3.12000000
     19.85555842       19.85555842        3.12000000
     22.06173157       17.64938526        3.12000000
     24.26790473       19.85555842        3.12000000
     26.47407789       17.64938526        3.12000000
     28.68025104       19.85555842        3.12000000
     30.88642420       17.64938526        3.12000000
     33.09259736       19.85555842        3.12000000
     35.29877052       17.64938526        3.12000000
     37.50494367       19.85555842        3.12000000
     39.71111683       17.64938526        3.12000000
     41.91728999       19.85555842        3.12000000
     44.12346315       17.64938526        3.12000000
     46.32963630       19.85555842        3.12000000
     48.53580946       17.64938526        3.12000000
     50.74198262       19.85555842        3.12000000
     52.94815578       17.64938526        3.12000000
     55.15432893       19.85555842        3.12000000
     57.36050209       17.64938526        3.12000000
     59.56667525       19.85555842        3.12000000
      0.00000000       22.06173157        3.12000000
      2.20617316       24.26790473        3.12000000
      4.41234631       22.06173157        3.12000000
      6.61851947       24.26790473        3.12000000
      8.82469263       22.06173157        3.12000000
     11.03086579       24.26790473        3.12000000
     13.23703894       22.06173157        3.12000000
     15.44321210       24.26790473        3.12000000
     17.64938526       22.06173157        3.12000000
     19.85555842       24.26790473        3.12000000
     22.06173157       22.06173157        3.12000000
     24.26790473       24.26790473        3.12000000
     26.47407789       22.06173157        3.12000000
     28.68025104       24.26790473        3.12000000
     30.88642420       22.06173157        3.12000000
     33.09259736       24.26790473        3.12000000
     35.29877052       22.06173157        3.12000000
     37.50494367       24.26790473        3.12000000
     39.71111683       22.06173157        3.12000000
     41.91728999       24.26790473        3.12000000
     44.12346315       22.06173157        3.12000000
     46.32963630       24.26790473        3.12000000
     48.53580946       22.06173157        3.12000000
     50.74198262       24.26790473        3.12000000
     52.94815578       22.06173157        3.12000000
     55.15432893       24.26790473        3.12000000
     57.36050209       22.06173157        3.12000000
     59.56667525       24.26790473        3.12000000
      0.00000000       26.47407789        3.12000000
      2.20617316       28.68025104        3.12000000
      4.41234631       26.47407789        3.12000000
      6.61851947       28.68025104        3.12000000
      8.82469263       26.47407789        3.12000000
     11.03086579       28.68025104        3.12000000
     13.23703894       26.47407789        3.12000000
     15.44321210       28.68025104        3.12000000
     17.64938526       26.47407789        3.12000000
     19.85555842       28.68025104        3.12000000
     22.06173157       26.47407789        3.12000000
     24.26790473       28.68025104        3.12000000
     26.47407789       26.47407789        3.12000000
     28.68025104       28.68025104        3.12000000
     30.88642420       26.47407789        3.12000000
     33.09259736       28.68025104        3.12000000
     35.29877052       26.47407789        3.12000000
     37.50494367       28.68025104        3.12000000
     39.71111683       26.47407789        3.12000000
     41.91728999       28.68025104        3.12000000
     44.12346315       26.47407789        3.12000000
     46.32963630       28.68025104        3.12000000
     48.53580946       26.47407789        3.12000000
     50.74198262       28.68025104        3.12000000
     52.94815578       26.47407789        3.12000000
     55.15432893       28.68025104        3.12000000
     57.36050209       26.47407789        3.12000000
     59.56667525       28.68025104        3.12000000
      0.00000000        0.00000000        6.24000000
      2.20617316        2.20617316        6.24000000
      4.41234631        0.00000000        6.24000000
      6.61851947        2.20617316        6.24000000
      8.82469263        0.00000000        6.24000000
     11.03086579        2.20617316        6.24000000
     13.23703894        0.00000000        6.24000000
     15.44321210        2.20617316        6.24000000
     17.64938526        0.00000000        6.24000000
     19.85555842        2.20617316        6.24000000
     22.06173157        0.00000000        6.24000000
     24.26790473        2.20617316        6.24000000
     26.47407789        0.00000000        6.24000000
     28.68025104        2.20617316        6.24000000
     30.88642420        0.00000000        6.24000000
     33.09259736        2.20617316        6.24000000
     35.29877052        0.00000000        6.24000000
     37.50494367        2.20617316        6.24000000
     39.71111683        0.00000000        6.24000000
     41.91728999        2.20617316        6.24000000
     44.12346315        0.00000000        6.24000000
     46.32963630        2.20617316        6.24000000
     48.53580946        0.00000000        6.24000000
     50.74198262        2.20617316        6.24000000
     52.94815578        0.00000000        6.24000000
     55.15432893        2.20617316        6.24000000
     57.36050209        0.00000000        6.24000000
     59.56667525        2.20617316        6.24000000
      0.00000000        4.41234631        6.24000000
      2.20617316        6.61851947        6.24000000
      4.41234631        4.41234631        6.24000000
      6.61851947        6.61851947        6.24000000
      8.82469263        4.41234631        6.24000000
     11.03086579        6.61851947        6.24000000
     13.23703894        4.41234631        6.24000000
     15.44321210        6.61851947        6.24000000
     17.64938526        4.41234631        6.24000000
     19.85555842        6.61851947        6.24000000
     22.06173157        4.41234631        6.24000000
     24.26790473        6.61851947        6.24000000
     26.47407789        4.41234631        6.24000000
     28.68025104        6.61851947        6.24000000
     30.88642420        4.41234631        6.24000000
     33.09259736        6.61851947        6.24000000
     35.29877052        4.41234631        6.24000000
     37.50494367        6.61851947        6.24000000
     39.71111683        4.41234631        6.24000000
     41.91728999        6.61851947        6.24000000
     44.12346315        4.41234631        6.24000000
     46.32963630        6.61851947        6.24000000
     48.53580946        4.41234631        6.24000000
     50.74198262        6.61851947        6.24000000
     52.94815578        4.41234631        6.24000000
     55.15432893        6.61851947        6.24000000
     57.36050209        4.41234631        6.24000000
     59.56667525        6.61851947        6.24000000
      0.00000000        8.82469263        6.24000000
      2.20617316       11.03086579        6.24000000
      4.41234631        8.82469263        6.24000000
      6.61851947       11.03086579        6.24000000
      8.82469263        8.82469263        6.24000000
     11.03086579       11.03086579        6.24000000
     13.23703894        8.82469263        6.24000000
     15.44321210       11.03086579        6.24000000
     17.64938526        8.82469263        6.24000000
     19.85555842       11.03086579        6.24000000
     22.06173157        8.82469263        6.24000000
     24.26790473       11.03086579        6.24000000
     26.47407789        8.82469263        6.24000000
     28.68025104       11.03086579        6.24000000
     30.88642420        8.82469263        6.24000000
     33.09259736       11.03086579        6.24000000
     35.29877052        8.82469263        6.24000000
     37.50494367       11.03086579        6.24000000
     39.71111683        8.82469263        6.24000000
     41.91728999       11.03086579        6.24000000
     44.12346315        8.82469263        6.24000000
     46.32963630       11.03086579        6.24000000
     48.53580946        8.82469263        6.24000000
     50.74198262       11.03086579        6.24000000
     52.94815578        8.82469263        6.24000000
     55.15432893       11.03086579        6.24000000
     57.36050209        8.82469263        6.24000000
     59.56667525       11.03086579        6.24000000
      0.00000000       13.23703894        6.24000000
      2.20617316       15.44321210        6.24000000
      4.41234631       13.23703894        6.24000000
      6.61851947       15.44321210        6.24000000
      8.82469263       13.23703894        6.24000000
     11.03086579       15.44321210        6.24000000
     13.23703894       13.23703894        6.24000000
     15.44321210       15.44321210        6.24000000
     17.64938526       13.23703894        6.24000000
     19.85555842       15.44321210        6.24000000
     22.06173157       13.23703894        6.24000000
     24.26790473       15.44321210        6.24000000
     26.47407789       13.23703894        6.24000000
     28.68025104       15.44321210        6.24000000
     30.88642420       13.23703894        6.24000000
     33.09259736       15.44321210        6.24000000
     35.29877052       13.23703894        6.24000000
     37.50494367       15.44321210        6.24000000
     39.71111683       13.23703894        6.24000000
     41.91728999       15.44321210        6.24000000
     44.12346315       13.23703894        6.24000000
     46.32963630       15.44321210        6.24000000
     48.53580946       13.23703894        6.24000000
     50.74198262       15.44321210        6.24000000
     52.94815578       13.23703894        6.24000000
     55.15432893       15.44321210        6.24000000
     57.36050209       13.23703894        6.24000000
     59.56667525       15.44321210        6.24000000
      0.00000000       17.64938526        6.24000000
      2.20617316       19.85555842        6.24000000
      4.41234631       17.64938526        6.24000000
      6.61851947       19.85555842        6.24000000
      8.82469263       17.64938526        6.24000000
     11.03086579       19.85555842        6.24000000
     13.23703894       17.64938526        6.24000000
     15.44321210       19.85555842        6.24000000
     17.64938526       17.64938526        6.24000000
     19.85555842       19.85555842        6.24000000
     22.06173157       17.64938526        6.24000000
     24.26790473       19.85555842        6.24000000
     26.47407789       17.64938526        6.24000000
     28.68025104       19.85555842        6.24000000
     30.88642420       17.64938526        6.24000000
     33.09259736       19.85555842        6.24000000
     35.29877052       17.64938526        6.24000000
     37.50494367       19.85555842        6.24000000
     39.71111683       17.64938526        6.24000000
     41.91728999       19.85555842        6.24000000
     44.12346315       17.64938526        6.24000000
     46.32963630       19.85555842        6.24000000
     48.53580946       17.64938526        6.24000000
     50.74198262       19.85555842        6.24000000
     52.94815578       17.64938526        6.24000000
     55.15432893       19.85555842        6.24000000
     57.36050209       17.64938526        6.24000000
     59.56667525       19.85555842        6.24000000
      0.00000000       22.06173157        6.24000000
      2.20617316       24.26790473        6.24000000
      4.41234631       22.06173157        6.24000000
      6.61851947       24.26790473        6.24000000
      8.82469263       22.06173157        6.24000000
     11.03086579       24.26790473        6.24000000
     13.23703894       22.06173157        6.24000000
     15.44321210       24.26790473        6.24000000
     17.64938526       22.06173157        6.24000000
     19.85555842       24.26790473        6.24000000
     22.06173157       22.06173157        6.24000000
     24.26790473       24.26790473        6.24000000
     26.47407789       22.06173157        6.24000000
     28.68025104       24.26790473        6.24000000
     30.88642420       22.06173157        6.24000000
     33.09259736       24.26790473        6.24000000
     35.29877052       22.06173157        6.24000000
     37.50494367       24.26790473        6.24000000
     39.71111683       22.06173157        6.24000000
     41.91728999       24.26790473        6.24000000
     44.12346315       22.06173157        6.24000000
     46.32963630       24.26790473        6.24000000
     48.53580946       22.06173157        6.24000000
     50.74198262       24.26790473        6.24000000
     52.94815578       22.06173157        6.24000000
     55.15432893       24.26790473        6.24000000
     57.36050209       22.06173157        6.24000000
     59.56667525       24.26790473        6.24000000
      0.00000000       26.47407789        6.24000000