# Bcc NiTi alloy oriented X=[100], Y=[010], Z=[001].
1.000000
     56.18880000        0.00000000        0.00000000
      0.00000000       56.18880000        0.00000000
      0.00000000        0.00000000       56.18880000
 Ni  Ti
  5832    5832
Cartesian
      0.00000000       -1.17000000        0.00000000
      3.12160000       -1.19917599        0.00000000
      6.24320000       -1.23175014        0.00000000
      9.36480000       -1.26801941        0.00000000
     12.48640000       -1.30819343        0.00000000
     15.60800000       -1.35232510        0.00000000
     18.72960000       -1.40023044        0.00000000
     21.85120000       -1.45141700        0.00000000
     24.97280000       -1.50505167        0.00000000
     28.09440000        1.56000000        0.00000000
     31.21600000        1.50505167        0.00000000
     34.33760000        1.45141700        0.00000000
     37.45920000        1.40023044        0.00000000
     40.58080000        1.35232510        0.00000000
     43.70240000        1.30819343        0.00000000
     46.82400000        1.26801941        0.00000000
     49.94560000        1.23175014        0.00000000
     53.06720000        1.19917599        0.00000000
      0.00000000        1.95160000        0.00000000
      3.12160000        1.92242401        0.00000000
      6.24320000        1.88984986        0.00000000
      9.36480000        1.85358059        0.00000000
     12.48640000        1.81340657        0.00000000
     15.60800000        1.76927490        0.00000000
     18.72960000        1.72136956        0.00000000
     21.85120000        1.67018300        0.00000000
     24.97280000        1.61654833        0.00000000
     28.09440000        4.68160000        0.00000000
     31.21600000        4.62665167        0.00000000
     34.33760000        4.57301700        0.00000000
     37.45920000        4.52183044        0.00000000
     40.58080000        4.47392510        0.00000000
     43.70240000        4.42979343        0.00000000
     46.82400000        4.38961941        0.00000000
     49.94560000        4.35335014        0.00000000
     53.06720000        4.32077599        0.00000000
      0.00000000        5.07320000        0.00000000
      3.12160000        5.04402401        0.00000000
      6.24320000        5.01144986        0.00000000
      9.36480000        4.97518059        0.00000000
     12.48640000        4.93500657        0.00000000
     15.60800000        4.89087490        0.00000000
     18.72960000        4.84296956        0.00000000
     21.85120000        4.79178300        0.00000000
     24.97280000        4.73814833        0.00000000
     28.09440000        7.80320000        0.00000000
     31.21600000        7.74825167        0.00000000
     34.33760000        7.69461700        0.00000000
     37.45920000        7.64343044        0.00000000
     40.58080000        7.59552510        0.00000000
     43.70240000        7.55139343        0.00000000
     46.82400000        7.51121941        0.00000000
     49.94560000        7.47495014        0.00000000
     53.06720000        7.44237599        0.00000000
      0.00000000        8.19480000        0.00000000
      3.12160000        8.16562401        0.00000000
      6.24320000        8.13304986        0.00000000
      9.36480000        8.09678059        0.00000000
     12.48640000        8.05660657        0.00000000
     15.60800000        8.01247490        0.00000000
     18.72960000        7.96456956        0.00000000
     21.85120000        7.91338300        0.00000000
     24.97280000        7.85974833        0.00000000
     28.09440000       10.92480000        0.00000000
     31.21600000       10.86985167        0.00000000
     34.33760000       10.81621700        0.00000000
     37.45920000       10.76503044        0.00000000
     40.58080000       10.71712510        0.00000000
     43.70240000       10.67299343        0.00000000
     46.82400000       10.63281941        0.00000000
     49.94560000       10.59655014        0.00000000
     53.06720000       10.56397599        0.00000000
      0.00000000       11.31640000        0.00000000
      3.12160000       11.28722401        0.00000000
      6.24320000       11.25464986        0.00000000
      9.36480000       11.21838059        0.00000000
     12.48640000       11.17820657        0.00000000
     15.60800000       11.13407490        0.00000000
     18.72960000       11.08616956        0.00000000
     21.85120000       11.03498300        0.00000000
     24.97280000       10.98134833        0.00000000
     28.09440000       14.04640000        0.00000000
     31.21600000       13.99145167        0.00000000
     34.33760000       13.93781700        0.00000000
     37.45920000       13.88663044        0.00000000
     40.58080000       13.83872510        0.00000000
     43.70240000       13.79459343        0.00000000
     46.82400000       13.75441941        0.00000000
     49.94560000       13.71815014        0.00000000
     53.06720000       13.68557599        0.00000000
      0.00000000       14.43800000        0.00000000
      3.12160000       14.40882401        0.00000000
      6.24320000       14.37624986        0.00000000
      9.36480000       14.33998059        0.00000000
     12.48640000       14.29980657        0.00000000
     15.60800000       14.25567490        0.00000000
     18.72960000       14.20776956        0.00000000
     21.85120000       14.15658300        0.00000000
     24.97280000       14.10294833        0.00000000
     28.09440000       17.16800000        0.00000000
     31.21600000       17.11305167        0.00000000
     34.33760000       17.05941700        0.00000000
     37.45920000       17.00823044        0.00000000
     40.58080000       16.96032510        0.00000000
     43.70240000       16.91619343        0.00000000
     46.82400000       16.87601941        0.00000000
     49.94560000       16.83975014        0.00000000
     53.06720000       16.80717599        0.00000000
      0.00000000       17.55960000        0.00000000
      3.12160000       17.53042401        0.00000000
      6.24320000       17.49784986        0.00000000
      9.36480000       17.46158059        0.00000000
     12.48640000       17.42140657        0.00000000
     15.60800000       17.37727490        0.00000000
     18.72960000       17.32936956        0.00000000
     21.85120000       17.27818300        0.00000000
     24.97280000       17.22454833        0.00000000
     28.09440000       20.28960000        0.00000000
     31.21600000       20.23465167        0.00000000
     34.33760000       20.18101700        0.00000000
     37.45920000       20.12983044        0.00000000
     40.58080000       20.08192510        0.00000000
     43.70240000       20.03779343        0.00000000
     46.82400000       19.99761941        0.00000000
     49.94560000       19.96135014        0.00000000
     53.06720000       19.92877599        0.00000000
      0.00000000       20.68120000        0.00000000
      3.12160000       20.65202401        0.00000000
      6.24320000       20.61944986        0.00000000
      9.36480000       20.58318059        0.00000000
     12.48640000       20.54300657        0.00000000
     15.60800000       20.49887490        0.00000000
     18.72960000       20.45096956        0.00000000
     21.85120000       20.39978300        0.00000000
     24.97280000       20.34614833        0.00000000
     28.09440000       23.41120000        0.00000000
     31.21600000       23.35625167        0.00000000
     34.33760000       23.30261700        0.00000000
     37.45920000       23.25143044        0.00000000
     40.58080000       23.20352510        0.00000000
     43.70240000       23.15939343        0.00000000
     46.82400000       23.11921941        0.00000000
     49.94560000       23.08295014        0.00000000
     53.06720000       23.05037599        0.00000000
      0.00000000       23.80280000        0.00000000
      3.12160000       23.77362401        0.00000000
      6.24320000       23.74104986        0.00000000
      9.36480000       23.70478059        0.00000000
     12.48640000       23.66460657        0.00000000
     15.60800000       23.62047490        0.00000000
     18.72960000       23.57256956        0.00000000
     21.85120000       23.52138300        0.00000000
     24.97280000       23.46774833        0.00000000
     28.09440000       26.53280000        0.00000000
     31.21600000       26.47785167        0.00000000
     34.33760000       26.42421700        0.00000000
     37.45920000       26.37303044        0.00000000
     40.58080000       26.32512510        0.00000000
     43.70240000       26.28099343        0.00000000
     46.82400000       26.24081941        0.00000000
     49.94560000       26.20455014        0.00000000
     53.06720000       26.17197599        0.00000000
      0.00000000       26.92440000        0.00000000
      3.12160000       26.89522401        0.00000000
      6.24320000       26.86264986        0.00000000
      9.36480000       26.82638059        0.00000000
     12.48640000       26.78620657        0.00000000
     15.60800000       26.74207490        0.00000000
     18.72960000       26.69416956        0.00000000
     21.85120000       26.64298300        0.00000000
     24.97280000       26.58934833        0.00000000
     28.09440000       29.65440000        0.00000000
     31.21600000       29.59945167        0.00000000
     34.33760000       29.54581700        0.00000000
     37.45920000       29.49463044        0.00000000
     40.58080000       29.44672510        0.00000000
     43.70240000       29.40259343        0.00000000
     46.82400000       29.36241941        0.00000000
     49.94560000       29.32615014        0.00000000
     53.06720000       29.29357599        0.00000000
      0.00000000       30.04600000        0.00000000
      3.12160000       30.01682401        0.00000000
      6.24320000       29.98424986        0.00000000
      9.36480000       29.94798059        0.00000000
     12.48640000       29.90780657        0.00000000
     15.60800000       29.86367490        0.00000000
     18.72960000       29.81576956        0.00000000
     21.85120000       29.76458300        0.00000000
     24.97280000       29.71094833        0.00000000
     28.09440000       32.77600000        0.00000000
     31.21600000       32.72105167        0.00000000
     34.33760000       32.66741700        0.00000000
     37.45920000       32.61623044        0.00000000
     40.58080000       32.56832510        0.00000000
     43.70240000       32.52419343        0.00000000
     46.82400000       32.48401941        0.00000000
     49.94560000       32.44775014        0.00000000
     53.06720000       32.41517599        0.00000000
      0.00000000       33.16760000        0.00000000
      3.12160000       33.13842401        0.00000000
      6.24320000       33.10584986        0.00000000
      9.36480000       33.06958059        0.00000000
     12.48640000       33.02940657        0.00000000
     15.60800000       32.98527490        0.00000000
     18.72960000       32.93736956        0.00000000
     21.85120000       32.88618300        0.00000000
     24.97280000       32.83254833        0.00000000
     28.09440000       35.89760000        0.00000000
     31.21600000       35.84265167        0.00000000
     34.33760000       35.78901700        0.00000000
     37.45920000       35.73783044        0.00000000
     40.58080000       35.68992510        0.00000000
     43.70240000       35.64579343        0.00000000
     46.82400000       35.60561941        0.00000000
     49.94560000       35.56935014        0.00000000
     53.06720000       35.53677599        0.00000000
      0.00000000       36.28920000        0.00000000
      3.12160000       36.26002401        0.00000000
      6.24320000       36.22744986        0.00000000
      9.36480000       36.19118059        0.00000000
     12.48640000       36.15100657        0.00000000
     15.60800000       36.10687490        0.00000000
     18.72960000       36.05896956        0.00000000
     21.85120000       36.00778300        0.00000000
     24.97280000       35.95414833        0.00000000
     28.09440000       39.01920000        0.00000000
     31.21600000       38.96425167        0.00000000
     34.33760000       38.91061700        0.00000000
     37.45920000       38.85943044        0.00000000
     40.58080000       38.81152510        0.00000000
     43.70240000       38.76739343        0.00000000
     46.82400000       38.72721941        0.00000000
     49.94560000       38.69095014        0.00000000
     53.06720000       38.65837599        0.00000000
      0.00000000       39.41080000        0.00000000
      3.12160000       39.38162401        0.00000000
      6.24320000       39.34904986        0.00000000
      9.36480000       39.31278059        0.00000000
     12.48640000       39.27260657        0.00000000
     15.60800000       39.22847490        0.00000000
     18.72960000       39.18056956        0.00000000
     21.85120000       39.12938300        0.00000000
     24.97280000       39.07574833        0.00000000
     28.09440000       42.14080000        0.00000000
     31.21600000       42.08585167        0.00000000
     34.33760000       42.03221700        0.00000000
     37.45920000       41.98103044        0.00000000
     40.58080000       41.93312510        0.00000000
     43.70240000       41.88899343        0.00000000
     46.82400000       41.84881941        0.00000000
     49.94560000       41.81255014        0.00000000
     53.06720000       41.77997599        0.00000000
      0.00000000       42.53240000        0.00000000
      3.12160000       42.50322401        0.00000000
      6.24320000       42.47064986        0.00000000
      9.36480000       42.43438059        0.00000000
     12.48640000       42.39420657        0.00000000
     15.60800000       42.35007490        0.00000000
     18.72960000       42.30216956        0.00000000
     21.85120000       42.25098300        0.00000000
     24.97280000       42.19734833        0.00000000
     28.09440000       45.26240000        0.00000000
     31.21600000       45.20745167        0.00000000
     34.33760000       45.15381700        0.00000000
     37.45920000       45.10263044        0.00000000
     40.58080000       45.05472510        0.00000000
     43.70240000       45.01059343        0.00000000
     46.82400000       44.97041941        0.00000000
     49.94560000       44.93415014        0.00000000
     53.06720000       44.90157599        0.00000000
      0.00000000       45.65400000        0.00000000
      3.12160000       45.62482401        0.00000000
      6.24320000       45.59224986        0.00000000
      9.36480000       45.55598059        0.00000000
     12.48640000       45.51580657        0.00000000
     15.60800000       45.47167490        0.00000000
     18.72960000       45.42376956        0.00000000
     21.85120000       45.37258300        0.00000000
     24.97280000       45.31894833        0.00000000
     28.09440000       48.38400000        0.00000000
     31.21600000       48.32905167        0.00000000
     34.33760000       48.27541700        0.00000000
     37.45920000       48.22423044        0.00000000
     40.58080000       48.17632510        0.00000000
     43.70240000       48.13219343        0.00000000
     46.82400000       48.09201941        0.00000000
     49.94560000       48.05575014        0.00000000
     53.06720000       48.02317599        0.00000000
      0.00000000       48.77560000        0.00000000
      3.12160000       48.74642401        0.00000000
      6.24320000       48.71384986        0.00000000
      9.36480000       48.67758059        0.00000000
     12.48640000       48.63740657        0.00000000
     15.60800000       48.59327490        0.00000000
     18.72960000       48.54536956        0.00000000
     21.85120000       48.49418300        0.00000000
     24.97280000       48.44054833        0.00000000
     28.09440000       51.50560000        0.00000000
     31.21600000       51.45065167        0.00000000
     34.33760000       51.39701700        0.00000000
     37.45920000       51.34583044        0.00000000
     40.58080000       51.29792510        0.00000000
     43.70240000       51.25379343        0.00000000
     46.82400000       51.21361941        0.00000000
     49.94560000       51.17735014        0.00000000
     53.06720000       51.14477599        0.00000000
      0.00000000       51.89720000        0.00000000
      3.12160000       51.86802401        0.00000000
      6.24320000       51.83544986        0.00000000
      9.36480000       51.79918059        0.00000000
     12.48640000       51.75900657        0.00000000
     15.60800000       51.71487490        0.00000000
     18.72960000       51.66696956        0.00000000
     21.85120000       51.61578300        0.00000000
     24.97280000       51.56214833        0.00000000
     28.09440000       54.62720000        0.00000000
     31.21600000       54.57225167        0.00000000
     34.33760000       54.51861700        0.00000000
     37.45920000       54.46743044        0.00000000
     40.58080000       54.41952510        0.00000000
     43.70240000       54.37539343        0.00000000
     46.82400000       54.33521941        0.00000000
     49.94560000       54.29895014        0.00000000
     53.06720000       54.26637599        0.00000000
      0.00000000       -1.14082401        3.12160000
      3.12160000       -1.17000000        3.12160000
      6.24320000       -1.20305532        3.12160000
      9.36480000       -1.24046089        3.12160000
     12.48640000       -1.28262001        3.12160000
     15.60800000       -1.32976956        3.12160000
     18.72960000       -1.38184761        3.12160000
     21.85120000       -1.43835256        3.12160000
     24.97280000       -1.49824986        3.12160000
     28.09440000        1.56000000        3.12160000
     31.21600000        1.49824986        3.12160000
     34.33760000        1.43835256        3.12160000
     37.45920000        1.38184761        3.12160000
     40.58080000        1.32976956        3.12160000
     43.70240000        1.28262001        3.12160000
     46.82400000        1.24046089        3.12160000
     49.94560000        1.20305532        3.12160000
     53.06720000        1.17000000        3.12160000
      0.00000000        1.98077599        3.12160000
      3.12160000        1.95160000        3.12160000
      6.24320000        1.91854468        3.12160000
      9.36480000        1.88113911        3.12160000
     12.48640000        1.83897999        3.12160000
     15.60800000        1.79183044        3.12160000
     18.72960000        1.73975239        3.12160000
     21.85120000        1.68324744        3.12160000
     24.97280000        1.62335014        3.12160000
     28.09440000        4.68160000        3.12160000
     31.21600000        4.61984986        3.12160000
     34.33760000        4.55995256        3.12160000
     37.45920000        4.50344761        3.12160000
     40.58080000        4.45136956        3.12160000
     43.70240000        4.40422001        3.12160000
     46.82400000        4.36206089        3.12160000
     49.94560000        4.32465532        3.12160000
     53.06720000        4.29160000        3.12160000
      0.00000000        5.10237599        3.12160000
      3.12160000        5.07320000        3.12160000
      6.24320000        5.04014468        3.12160000
      9.36480000        5.00273911        3.12160000
     12.48640000        4.96057999        3.12160000
     15.60800000        4.91343044        3.12160000
     18.72960000        4.86135239        3.12160000
     21.85120000        4.80484744        3.12160000
     24.97280000        4.74495014        3.12160000
     28.09440000        7.80320000        3.12160000
     31.21600000        7.74144986        3.12160000
     34.33760000        7.68155256        3.12160000
     37.45920000        7.62504761        3.12160000
     40.58080000        7.57296956        3.12160000
     43.70240000        7.52582001        3.12160000
     46.82400000        7.48366089        3.12160000
     49.94560000        7.44625532        3.12160000
     53.06720000        7.41320000        3.12160000
      0.00000000        8.22397599        3.12160000
      3.12160000        8.19480000        3.12160000
      6.24320000        8.16174468        3.12160000
      9.36480000        8.12433911        3.12160000
     12.48640000        8.08217999        3.12160000
     15.60800000        8.03503044        3.12160000
     18.72960000        7.98295239        3.12160000
     21.85120000        7.92644744        3.12160000
     24.97280000        7.86655014        3.12160000
     28.09440000       10.92480000        3.12160000
     31.21600000       10.86304986        3.12160000
     34.33760000       10.80315256        3.12160000
     37.45920000       10.74664761        3.12160000
     40.58080000       10.69456956        3.12160000
     43.70240000       10.64742001        3.12160000
     46.82400000       10.60526089        3.12160000
     49.94560000       10.56785532        3.12160000
     53.06720000       10.53480000        3.12160000
      0.00000000       11.34557599        3.12160000
      3.12160000       11.31640000        3.12160000
      6.24320000       11.28334468        3.12160000
      9.36480000       11.24593911        3.12160000
     12.48640000       11.20377999        3.12160000
     15.60800000       11.15663044        3.12160000
     18.72960000       11.10455239        3.12160000
     21.85120000       11.04804744        3.12160000
     24.97280000       10.98815014        3.12160000
     28.09440000       14.04640000        3.12160000
     31.21600000       13.98464986        3.12160000
     34.33760000       13.92475256        3.12160000
     37.45920000       13.86824761        3.12160000
     40.58080000       13.81616956        3.12160000
     43.70240000       13.76902001        3.12160000
     46.82400000       13.72686089        3.12160000
     49.94560000       13.68945532        3.12160000
     53.06720000       13.65640000        3.12160000
      0.00000000       14.46717599        3.12160000
      3.12160000       14.43800000        3.12160000
      6.24320000       14.40494468        3.12160000
      9.36480000       14.36753911        3.12160000
     12.48640000       14.32537999        3.12160000
     15.60800000       14.27823044        3.12160000
     18.72960000       14.22615239        3.12160000
     21.85120000       14.16964744        3.12160000
     24.97280000       14.10975014        3.12160000
     28.09440000       17.16800000        3.12160000
     31.21600000       17.10624986        3.12160000
     34.33760000       17.04635256        3.12160000
     37.45920000       16.98984761        3.12160000
     40.58080000       16.93776956        3.12160000
     43.70240000       16.89062001        3.12160000
     46.82400000       16.84846089        3.12160000
     49.94560000       16.81105532        3.12160000
     53.06720000       16.77800000        3.12160000
      0.00000000       17.58877599        3.12160000
      3.12160000       17.55960000        3.12160000
      6.24320000       17.52654468        3.12160000
      9.36480000       17.48913911        3.12160000
     12.48640000       17.44697999        3.12160000
     15.60800000       17.39983044        3.12160000
     18.72960000       17.34775239        3.12160000
     21.85120000       17.29124744        3.12160000
     24.97280000       17.23135014        3.12160000
     28.09440000       20.28960000        3.12160000
     31.21600000       20.22784986        3.12160000
     34.33760000       20.16795256        3.12160000
     37.45920000       20.11144761        3.12160000
     40.58080000       20.05936956        3.12160000
     43.70240000       20.01222001        3.12160000
     46.82400000       19.97006089        3.12160000
     49.94560000       19.93265532        3.12160000
     53.06720000       19.89960000        3.12160000
      0.00000000       20.71037599        3.12160000
      3.12160000       20.68120000        3.12160000
      6.24320000       20.64814468        3.12160000
      9.36480000       20.61073911        3.12160000
     12.48640000       20.56857999        3.12160000
     15.60800000       20.52143044        3.12160000
     18.72960000       20.46935239        3.12160000
     21.85120000       20.41284744        3.12160000
     24.97280000       20.35295014        3.12160000
     28.09440000       23.41120000        3.12160000
     31.21600000       23.34944986        3.12160000
     34.33760000       23.28955256        3.12160000
     37.45920000       23.23304761        3.12160000
     40.58080000       23.18096956        3.12160000
     43.70240000       23.13382001        3.12160000
     46.82400000       23.09166089        3.12160000
     49.94560000       23.05425532        3.12160000
     53.06720000       23.02120000        3.12160000
      0.00000000       23.83197599        3.12160000
      3.12160000       23.80280000        3.12160000
      6.24320000       23.76974468        3.12160000
      9.36480000       23.73233911        3.12160000
     12.48640000       23.69017999        3.12160000
     15.60800000       23.64303044        3.12160000
     18.72960000       23.59095239        3.12160000
     21.85120000       23.53444744        3.12160000
     24.97280000       23.47455014        3.12160000
     28.09440000       26.53280000        3.12160000
     31.21600000       26.47104986        3.12160000
     34.33760000       26.41115256        3.12160000
     37.45920000       26.35464761        3.12160000
     40.58080000       26.30256956        3.12160000
     43.70240000       26.25542001        3.12160000
     46.82400000       26.21326089        3.12160000
     49.94560000       26.17585532        3.12160000
     53.06720000       26.14280000        3.12160000
      0.00000000       26.95357599        3.12160000
      3.12160000       26.92440000        3.12160000
      6.24320000       26.89134468        3.12160000
      9.36480000       26.85393911        3.12160000
     12.48640000       26.81177999        3.12160000
     15.60800000       26.76463044        3.12160000
     18.72960000       26.71255239        3.12160000
     21.85120000       26.65604744        3.12160000
     24.97280000       26.59615014        3.12160000
     28.09440000       29.65440000        3.12160000
     31.21600000       29.59264986        3.12160000
     34.33760000       29.53275256        3.12160000
     37.45920000       29.47624761        3.12160000
     40.58080000       29.42416956        3.12160000
     43.70240000       29.37702001        3.12160000
     46.82400000       29.33486089        3.12160000
     49.94560000       29.29745532        3.12160000
     53.06720000       29.26440000        3.12160000
      0.00000000       30.07517599        3.12160000
      3.12160000       30.04600000        3.12160000
      6.24320000       30.01294468        3.12160000
      9.36480000       29.97553911        3.12160000
     12.48640000       29.93337999        3.12160000
     15.60800000       29.88623044        3.12160000
     18.72960000       29.83415239        3.12160000
     21.85120000       29.77764744        3.12160000
     24.97280000       29.71775014        3.12160000
     28.09440000       32.77600000        3.12160000
     31.21600000       32.71424986        3.12160000
     34.33760000       32.65435256        3.12160000
     37.45920000       32.59784761        3.12160000
     40.58080000       32.54576956        3.12160000
     43.70240000       32.49862001        3.12160000
     46.82400000       32.45646089        3.12160000
     49.94560000       32.41905532        3.12160000
     53.06720000       32.38600000        3.12160000
      0.00000000       33.19677599        3.12160000
      3.12160000       33.16760000        3.12160000
      6.24320000       33.13454468        3.12160000
      9.36480000       33.09713911        3.12160000
     12.48640000       33.05497999        3.12160000
     15.60800000       33.00783044        3.12160000
     18.72960000       32.95575239        3.12160000
     21.85120000       32.89924744        3.12160000
     24.97280000       32.83935014        3.12160000
     28.09440000       35.89760000        3.12160000
     31.21600000       35.83584986        3.12160000
     34.33760000       35.77595256        3.12160000
     37.45920000       35.71944761        3.12160000
     40.58080000       35.66736956        3.12160000
     43.70240000       35.62022001        3.12160000
     46.82400000       35.57806089        3.12160000
     49.94560000       35.54065532        3.12160000
     53.06720000       35.50760000        3.12160000
      0.00000000       36.31837599        3.12160000
      3.12160000       36.28920000        3.12160000
      6.24320000       36.25614468        3.12160000
      9.36480000       36.21873911        3.12160000
     12.48640000       36.17657999        3.12160000
     15.60800000       36.12943044        3.12160000
     18.72960000       36.07735239        3.12160000
     21.85120000       36.02084744        3.12160000
     24.97280000       35.96095014        3.12160000
     28.09440000       39.01920000        3.12160000
     31.21600000       38.95744986        3.12160000
     34.33760000       38.89755256        3.12160000
     37.45920000       38.84104761        3.12160000
     40.58080000       38.78896956        3.12160000
     43.70240000       38.74182001        3.12160000
     46.82400000       38.69966089        3.12160000
     49.94560000       38.66225532        3.12160000
     53.06720000       38.62920000        3.12160000
      0.00000000       39.43997599        3.12160000
      3.12160000       39.41080000        3.12160000
      6.24320000       39.37774468        3.12160000