# Bcc NiTi alloy oriented X=[111], Y=[1-10], Z=[11-2].
1.000000
     64.84798224        0.00000000        0.00000000
      0.00000000       30.88642420        0.00000000
      0.00000000        0.00000000       30.56963199
 Ni  Ti
  2688    1344
Cartesian
      0.00000000        2.20617316        3.82120400
      1.80133284        0.00000000        5.09493866
      0.00000000        0.00000000        0.00000000
      1.80133284        2.20617316        1.27373467
      2.70199926        2.20617316        3.82120400
      4.50333210        0.00000000        5.09493866
      2.70199926        0.00000000        0.00000000
      4.50333210        2.20617316        1.27373467
      5.40399852        2.20617316        3.82120400
      7.20533136        0.00000000        5.09493866
      5.40399852        0.00000000        0.00000000
      7.20533136        2.20617316        1.27373467
      8.10599778        2.20617316        3.82120400
      9.90733062        0.00000000        5.09493866
      8.10599778        0.00000000        0.00000000
      9.90733062        2.20617316        1.27373467
     10.80799704        2.20617316        3.82120400
     12.60932988        0.00000000        5.09493866
     10.80799704        0.00000000        0.00000000
     12.60932988        2.20617316        1.27373467
     13.50999630        2.20617316        3.82120400
     15.31132914        0.00000000        5.09493866
     13.50999630        0.00000000        0.00000000
     15.31132914        2.20617316        1.27373467
     16.21199556        2.20617316        3.82120400
     18.01332840        0.00000000        5.09493866
     16.21199556        0.00000000        0.00000000
     18.01332840        2.20617316        1.27373467
     18.91399482        2.20617316        3.82120400
     20.71532766        0.00000000        5.09493866
     18.91399482        0.00000000        0.00000000
     20.71532766        2.20617316        1.27373467
     21.61599408        2.20617316        3.82120400
     23.41732692        0.00000000        5.09493866
     21.61599408        0.00000000        0.00000000
     23.41732692        2.20617316        1.27373467
     24.31799334        2.20617316        3.82120400
     26.11932618        0.00000000        5.09493866
     24.31799334        0.00000000        0.00000000
     26.11932618        2.20617316        1.27373467
     27.01999260        2.20617316        3.82120400
     28.82132544        0.00000000        5.09493866
     27.01999260        0.00000000        0.00000000
     28.82132544        2.20617316        1.27373467
     29.72199186        2.20617316        3.82120400
     31.52332470        0.00000000        5.09493866
     29.72199186        0.00000000        0.00000000
     31.52332470        2.20617316        1.27373467
     32.42399112        2.20617316        3.82120400
     34.22532396        0.00000000        5.09493866
     32.42399112        0.00000000        0.00000000
     34.22532396        2.20617316        1.27373467
     35.12599038        2.20617316        3.82120400
     36.92732322        0.00000000        5.09493866
     35.12599038        0.00000000        0.00000000
     36.92732322        2.20617316        1.27373467
     37.82798964        2.20617316        3.82120400
     39.62932248        0.00000000        5.09493866
     37.82798964        0.00000000        0.00000000
     39.62932248        2.20617316        1.27373467
     40.52998890        2.20617316        3.82120400
     42.33132174        0.00000000        5.09493866
     40.52998890        0.00000000        0.00000000
     42.33132174        2.20617316        1.27373467
     43.23198816        2.20617316        3.82120400
     45.03332100        0.00000000        5.09493866
     43.23198816        0.00000000        0.00000000
     45.03332100        2.20617316        1.27373467
     45.93398742        2.20617316        3.82120400
     47.73532026        0.00000000        5.09493866
     45.93398742        0.00000000        0.00000000
     47.73532026        2.20617316        1.27373467
     48.63598668        2.20617316        3.82120400
     50.43731952        0.00000000        5.09493866
     48.63598668        0.00000000        0.00000000
     50.43731952        2.20617316        1.27373467
     51.33798594        2.20617316        3.82120400
     53.13931878        0.00000000        5.09493866
     51.33798594        0.00000000        0.00000000
     53.13931878        2.20617316        1.27373467
     54.03998520        2.20617316        3.82120400
     55.84131804        0.00000000        5.09493866
     54.03998520        0.00000000        0.00000000
     55.84131804        2.20617316        1.27373467
     56.74198446        2.20617316        3.82120400
     58.54331730        0.00000000        5.09493866
     56.74198446        0.00000000        0.00000000
     58.54331730        2.20617316        1.27373467
     59.44398372        2.20617316        3.82120400
     61.24531656        0.00000000        5.09493866
     59.44398372        0.00000000        0.00000000
     61.24531656        2.20617316        1.27373467
     62.14598298        2.20617316        3.82120400
     63.94731582        0.00000000        5.09493866
     62.14598298        0.00000000        0.00000000
     63.94731582        2.20617316        1.27373467
      0.00000000        6.61851947        3.82120400
      1.80133284        4.41234631        5.09493866
      0.00000000        4.41234631        0.00000000
      1.80133284        6.61851947        1.27373467
      2.70199926        6.61851947        3.82120400
      4.50333210        4.41234631        5.09493866
      2.70199926        4.41234631        0.00000000
      4.50333210        6.61851947        1.27373467
      5.40399852        6.61851947        3.82120400
      7.20533136        4.41234631        5.09493866
      5.40399852        4.41234631        0.00000000
      7.20533136        6.61851947        1.27373467
      8.10599778        6.61851947        3.82120400
      9.90733062        4.41234631        5.09493866
      8.10599778        4.41234631        0.00000000
      9.90733062        6.61851947        1.27373467
     10.80799704        6.61851947        3.82120400
     12.60932988        4.41234631        5.09493866
     10.80799704        4.41234631        0.00000000
     12.60932988        6.61851947        1.27373467
     13.50999630        6.61851947        3.82120400
     15.31132914        4.41234631        5.09493866
     13.50999630        4.41234631        0.00000000
     15.31132914        6.61851947        1.27373467
     16.21199556        6.61851947        3.82120400
     18.01332840        4.41234631        5.09493866
     16.21199556        4.41234631        0.00000000
     18.01332840        6.61851947        1.27373467
     18.91399482        6.61851947        3.82120400
     20.71532766        4.41234631        5.09493866
     18.91399482        4.41234631        0.00000000
     20.71532766        6.61851947        1.27373467
     21.61599408        6.61851947        3.82120400
     23.41732692        4.41234631        5.09493866
     21.61599408        4.41234631        0.00000000
     23.41732692        6.61851947        1.27373467
     24.31799334        6.61851947        3.82120400
     26.11932618        4.41234631        5.09493866
     24.31799334        4.41234631        0.00000000
     26.11932618        6.61851947        1.27373467
     27.01999260        6.61851947        3.82120400
     28.82132544        4.41234631        5.09493866
     27.01999260        4.41234631        0.00000000
     28.82132544        6.61851947        1.27373467
     29.72199186        6.61851947        3.82120400
     31.52332470        4.41234631        5.09493866
     29.72199186        4.41234631        0.00000000
     31.52332470        6.61851947        1.27373467
     32.42399112        6.61851947        3.82120400
     34.22532396        4.41234631        5.09493866
     32.42399112        4.41234631        0.00000000
     34.22532396        6.61851947        1.27373467
     35.12599038        6.61851947        3.82120400
     36.92732322        4.41234631        5.09493866
     35.12599038        4.41234631        0.00000000
     36.92732322        6.61851947        1.27373467
     37.82798964        6.61851947        3.82120400
     39.62932248        4.41234631        5.09493866
     37.82798964        4.41234631        0.00000000
     39.62932248        6.61851947        1.27373467
     40.52998890        6.61851947        3.82120400
     42.33132174        4.41234631        5.09493866
     40.52998890        4.41234631        0.00000000
     42.33132174        6.61851947        1.27373467
     43.23198816        6.61851947        3.82120400
     45.03332100        4.41234631        5.09493866
     43.23198816        4.41234631        0.00000000
     45.03332100        6.61851947        1.27373467
     45.93398742        6.61851947        3.82120400
     47.73532026        4.41234631        5.09493866
     45.93398742        4.41234631        0.00000000
     47.73532026        6.61851947        1.27373467
     48.63598668        6.61851947        3.82120400
     50.43731952        4.41234631        5.09493866
     48.63598668        4.41234631        0.00000000
     50.43731952        6.61851947        1.27373467
     51.33798594        6.61851947        3.82120400
     53.13931878        4.41234631        5.09493866
     51.33798594        4.41234631        0.00000000
     53.13931878        6.61851947        1.27373467
     54.03998520        6.61851947        3.82120400
     55.84131804        4.41234631        5.09493866
     54.03998520        4.41234631        0.00000000
     55.84131804        6.61851947        1.27373467
     56.74198446        6.61851947        3.82120400
     58.54331730        4.41234631        5.09493866
     56.74198446        4.41234631        0.00000000
     58.54331730        6.61851947        1.27373467
     59.44398372        6.61851947        3.82120400
     61.24531656        4.41234631        5.09493866
     59.44398372        4.41234631        0.00000000
     61.24531656        6.61851947        1.27373467
     62.14598298        6.61851947        3.82120400
     63.94731582        4.41234631        5.09493866
     62.14598298        4.41234631        0.00000000
     63.94731582        6.61851947        1.27373467
      0.00000000       11.03086579        3.82120400
      1.80133284        8.82469263        5.09493866
      0.00000000        8.82469263        0.00000000
      1.80133284       11.03086579        1.27373467
      2.70199926       11.03086579        3.82120400
      4.50333210        8.82469263        5.09493866
      2.70199926        8.82469263        0.00000000
      4.50333210       11.03086579        1.27373467
      5.40399852       11.03086579        3.82120400
      7.20533136        8.82469263        5.09493866
      5.40399852        8.82469263        0.00000000
      7.20533136       11.03086579        1.27373467
      8.10599778       11.03086579        3.82120400
      9.90733062        8.82469263        5.09493866
      8.10599778        8.82469263        0.00000000
      9.90733062       11.03086579        1.27373467
     10.80799704       11.03086579        3.82120400
     12.60932988        8.82469263        5.09493866
     10.80799704        8.82469263        0.00000000
     12.60932988       11.03086579        1.27373467
     13.50999630       11.03086579        3.82120400
     15.31132914        8.82469263        5.09493866
     13.50999630        8.82469263        0.00000000
     15.31132914       11.03086579        1.27373467
     16.21199556       11.03086579        3.82120400
     18.01332840        8.82469263        5.09493866
     16.21199556        8.82469263        0.00000000
     18.01332840       11.03086579        1.27373467
     18.91399482       11.03086579        3.82120400
     20.71532766        8.82469263        5.09493866
     18.91399482        8.82469263        0.00000000
     20.71532766       11.03086579        1.27373467
     21.61599408       11.03086579        3.82120400
     23.41732692        8.82469263        5.09493866
     21.61599408        8.82469263        0.00000000
     23.41732692       11.03086579        1.27373467
     24.31799334       11.03086579        3.82120400
     26.11932618        8.82469263        5.09493866
     24.31799334        8.82469263        0.00000000
     26.11932618       11.03086579        1.27373467
     27.01999260       11.03086579        3.82120400
     28.82132544        8.82469263        5.09493866
     27.01999260        8.82469263        0.00000000
     28.82132544       11.03086579        1.27373467
     29.72199186       11.03086579        3.82120400
     31.52332470        8.82469263        5.09493866
     29.72199186        8.82469263        0.00000000
     31.52332470       11.03086579        1.27373467
     32.42399112       11.03086579        3.82120400
     34.22532396        8.82469263        5.09493866
     32.42399112        8.82469263        0.00000000
     34.22532396       11.03086579        1.27373467
     35.12599038       11.03086579        3.82120400
     36.92732322        8.82469263        5.09493866
     35.12599038        8.82469263        0.00000000
     36.92732322       11.03086579        1.27373467
     37.82798964       11.03086579        3.82120400
     39.62932248        8.82469263        5.09493866
     37.82798964        8.82469263        0.00000000
     39.62932248       11.03086579        1.27373467
     40.52998890       11.03086579        3.82120400
     42.33132174        8.82469263        5.09493866
     40.52998890        8.82469263        0.00000000
     42.33132174       11.03086579        1.27373467
     43.23198816       11.03086579        3.82120400
     45.03332100        8.82469263        5.09493866
     43.23198816        8.82469263        0.00000000
     45.03332100       11.03086579        1.27373467
     45.93398742       11.03086579        3.82120400
     47.73532026        8.82469263        5.09493866
     45.93398742        8.82469263        0.00000000
     47.73532026       11.03086579        1.27373467
     48.63598668       11.03086579        3.82120400
     50.43731952        8.82469263        5.09493866
     48.63598668        8.82469263        0.00000000
     50.43731952       11.03086579        1.27373467
     51.33798594       11.03086579        3.82120400
     53.13931878        8.82469263        5.09493866
     51.33798594        8.82469263        0.00000000
     53.13931878       11.03086579        1.27373467
     54.03998520       11.03086579        3.82120400
     55.84131804        8.82469263        5.09493866
     54.03998520        8.82469263        0.00000000
     55.84131804       11.03086579        1.27373467
     56.74198446       11.03086579        3.82120400
     58.54331730        8.82469263        5.09493866
     56.74198446        8.82469263        0.00000000
     58.54331730       11.03086579        1.27373467
     59.44398372       11.03086579        3.82120400
     61.24531656        8.82469263        5.09493866
     59.44398372        8.82469263        0.00000000
     61.24531656       11.03086579        1.27373467
     62.14598298       11.03086579        3.82120400
     63.94731582        8.82469263        5.09493866
     62.14598298        8.82469263        0.00000000
     63.94731582       11.03086579        1.27373467
      0.00000000       15.44321210        3.82120400
      1.80133284       13.23703894        5.09493866
      0.00000000       13.23703894        0.00000000
      1.80133284       15.44321210        1.27373467
      2.70199926       15.44321210        3.82120400
      4.50333210       13.23703894        5.09493866
      2.70199926       13.23703894        0.00000000
      4.50333210       15.44321210        1.27373467
      5.40399852       15.44321210        3.82120400
      7.20533136       13.23703894        5.09493866
      5.40399852       13.23703894        0.00000000
      7.20533136       15.44321210        1.27373467
      8.10599778       15.44321210        3.82120400
      9.90733062       13.23703894        5.09493866
      8.10599778       13.23703894        0.00000000
      9.90733062       15.44321210        1.27373467
     10.80799704       15.44321210        3.82120400
     12.60932988       13.23703894        5.09493866
     10.80799704       13.23703894        0.00000000
     12.60932988       15.44321210        1.27373467
     13.50999630       15.44321210        3.82120400
     15.31132914       13.23703894        5.09493866
     13.50999630       13.23703894        0.00000000
     15.31132914       15.44321210        1.27373467
     16.21199556       15.44321210        3.82120400
     18.01332840       13.23703894        5.09493866
     16.21199556       13.23703894        0.00000000
     18.01332840       15.44321210        1.27373467
     18.91399482       15.44321210        3.82120400
     20.71532766       13.23703894        5.09493866
     18.91399482       13.23703894        0.00000000
     20.71532766       15.44321210        1.27373467
     21.61599408       15.44321210        3.82120400
     23.41732692       13.23703894        5.09493866
     21.61599408       13.23703894        0.00000000
     23.41732692       15.44321210        1.27373467
     24.31799334       15.44321210        3.82120400
     26.11932618       13.23703894        5.09493866
     24.31799334       13.23703894        0.00000000
     26.11932618       15.44321210        1.27373467
     27.01999260       15.44321210        3.82120400
     28.82132544       13.23703894        5.09493866
     27.01999260       13.23703894        0.00000000
     28.82132544       15.44321210        1.27373467
     29.72199186       15.44321210        3.82120400
     31.52332470       13.23703894        5.09493866
     29.72199186       13.23703894        0.00000000
     31.52332470       15.44321210        1.27373467
     32.42399112       15.44321210        3.82120400
     34.22532396       13.23703894        5.09493866
     32.42399112       13.23703894        0.00000000
     34.22532396       15.44321210        1.27373467
     35.12599038       15.44321210        3.82120400
     36.92732322       13.23703894        5.09493866
     35.12599038       13.23703894        0.00000000
     36.92732322       15.44321210        1.27373467
     37.82798964       15.44321210        3.82120400
     39.62932248       13.23703894        5.09493866
     37.82798964       13.23703894        0.00000000
     39.62932248       15.44321210        1.27373467
     40.52998890       15.44321210        3.82120400
     42.33132174       13.23703894        5.09493866
     40.52998890       13.23703894        0.00000000
     42.33132174       15.44321210        1.27373467
     43.23198816       15.44321210        3.82120400
     45.03332100       13.23703894        5.09493866
     43.23198816       13.23703894        0.00000000
     45.03332100       15.44321210        1.27373467
     45.93398742       15.44321210        3.82120400
     47.73532026       13.23703894        5.09493866
     45.93398742       13.23703894        0.00000000
     47.73532026       15.44321210        1.27373467
     48.63598668       15.44321210        3.82120400
     50.43731952       13.23703894        5.09493866
     48.63598668       13.23703894        0.00000000
     50.43731952       15.44321210        1.27373467
     51.33798594       15.44321210        3.82120400
     53.13931878       13.23703894        5.09493866
     51.33798594       13.23703894        0.00000000
     53.13931878       15.44321210        1.27373467
     54.03998520       15.44321210        3.82120400
     55.84131804       13.23703894        5.09493866
     54.03998520       13.23703894        0.00000000
     55.84131804       15.44321210        1.27373467
     56.74198446       15.44321210        3.82120400
     58.54331730       13.23703894        5.09493866
     56.74198446       13.23703894        0.00000000
     58.54331730       15.44321210        1.27373467
     59.44398372       15.44321210        3.82120400
     61.24531656       13.23703894        5.09493866
     59.44398372       13.23703894        0.00000000
     61.24531656       15.44321210        1.27373467
     62.14598298       15.44321210        3.82120400
     63.94731582       13.23703894        5.09493866
     62.14598298       13.23703894        0.00000000
     63.94731582       15.44321210        1.27373467
      0.00000000       19.85555842        3.82120400
      1.80133284       17.64938526        5.09493866
      0.00000000       17.64938526        0.00000000
      1.80133284       19.85555842        1.27373467
      2.70199926       19.85555842        3.82120400
      4.50333210       17.64938526        5.09493866
      2.70199926       17.64938526        0.00000000
      4.50333210       19.85555842        1.27373467
      5.40399852       19.85555842        3.82120400
      7.20533136       17.64938526        5.09493866
      5.40399852       17.64938526        0.00000000
      7.20533136       19.85555842        1.27373467
      8.10599778       19.85555842        3.82120400
      9.90733062       17.64938526        5.09493866
      8.10599778       17.64938526        0.00000000
      9.90733062       19.85555842        1.27373467
     10.80799704       19.85555842        3.82120400
     12.60932988       17.64938526        5.09493866
     10.80799704       17.64938526        0.00000000
     12.60932988       19.85555842        1.27373467
     13.50999630       19.85555842        3.82120400
     15.31132914       17.64938526        5.09493866
     13.50999630       17.64938526        0.00000000
     15.31132914       19.85555842        1.27373467
     16.21199556       19.85555842        3.82120400
     18.01332840       17.64938526        5.09493866
     16.21199556       17.64938526        0.00000000
     18.01332840       19.85555842        1.27373467
     18.91399482       19.85555842        3.82120400
     20.71532766       17.64938526        5.09493866
     18.91399482       17.64938526        0.00000000
     20.71532766       19.85555842        1.27373467
     21.61599408       19.85555842        3.82120400
     23.41732692       17.64938526        5.09493866
     21.61599408       17.64938526        0.00000000
     23.41732692       19.85555842        1.27373467
     24.31799334       19.85555842        3.82120400
     26.11932618       17.64938526        5.09493866
     24.31799334       17.64938526        0.00000000
     26.11932618       19.85555842        1.27373467
     27.01999260       19.85555842        3.82120400
     28.82132544       17.64938526        5.09493866
     27.01999260       17.64938526        0.00000000
     28.82132544       19.85555842        1.27373467
     29.72199186       19.85555842        3.82120400
     31.52332470       17.64938526        5.09493866
     29.72199186       17.64938526        0.00000000
     31.52332470       19.85555842        1.27373467
     32.42399112       19.85555842        3.82120400
     34.22532396       17.64938526        5.09493866
     32.42399112       17.64938526        0.00000000
     34.22532396       19.85555842        1.27373467
     35.12599038       19.85555842        3.82120400
     36.92732322       17.64938526        5.09493866
     35.12599038       17.64938526        0.00000000
     36.92732322       19.85555842        1.27373467
     37.82798964       19.85555842        3.82120400
     39.62932248       17.64938526        5.09493866
     37.82798964       17.64938526        0.00000000
     39.62932248       19.85555842        1.27373467
     40.52998890       19.85555842        3.82120400
     42.33132174       17.64938526        5.09493866
     40.52998890       17.64938526        0.00000000
     42.33132174       19.85555842        1.27373467
     43.23198816       19.85555842        3.82120400
     45.03332100       17.64938526        5.09493866
     43.23198816       17.64938526        0.00000000
     45.03332100       19.85555842        1.27373467
     45.93398742       19.85555842        3.82120400
     47.73532026       17.64938526        5.09493866
     45.93398742       17.64938526        0.00000000
     47.73532026       19.85555842        1.27373467
     48.63598668       19.85555842        3.82120400
     50.43731952       17.64938526        5.09493866
     48.63598668       17.64938526        0.00000000
     50.43731952       19.85555842        1.27373467
     51.33798594       19.85555842        3.82120400
     53.13931878       17.64938526        5.09493866
     51.33798594       17.64938526        0.00000000
     53.13931878       19.85555842        1.27373467
     54.03998520       19.85555842        3.82120400
     55.84131804       17.64938526        5.09493866
     54.03998520       17.64938526        0.00000000
     55.84131804       19.85555842        1.27373467
     56.74198446       19.85555842        3.82120400
     58.54331730       17.64938526        5.09493866
     56.74198446       17.64938526        0.00000000
     58.54331730       19.85555842        1.27373467
     59.44398372       19.85555842        3.82120400
     61.24531656       17.64938526        5.09493866
     59.44398372       17.64938526        0.00000000
     61.24531656       19.85555842        1.27373467
     62.14598298       19.85555842        3.82120400
     63.94731582       17.64938526        5.09493866
     62.14598298       17.64938526        0.00000000
     63.94731582       19.85555842        1.27373467
      0.00000000       24.26790473        3.82120400
      1.80133284       22.06173157        5.09493866
      0.00000000       22.06173157        0.00000000
      1.80133284       24.26790473        1.27373467
      2.70199926       24.26790473        3.82120400
      4.50333210       22.06173157        5.09493866
      2.70199926       22.06173157        0.00000000
      4.50333210       24.26790473        1.27373467
      5.40399852       24.26790473        3.82120400
      7.20533136       22.06173157        5.09493866
      5.40399852       22.06173157        0.00000000
      7.20533136       24.26790473        1.27373467
      8.10599778       24.26790473        3.82120400
      9.90733062       22.06173157        5.09493866
      8.10599778       22.06173157        0.00000000
      9.90733062       24.26790473        1.27373467
     10.80799704       24.26790473        3.82120400
     12.60932988       22.06173157        5.09493866
     10.80799704       22.06173157        0.00000000
     12.60932988       24.26790473        1.27373467
     13.50999630       24.26790473        3.82120400
     15.31132914       22.06173157        5.09493866
     13.50999630       22.06173157        0.00000000
     15.31132914       24.26790473        1.27373467
     16.21199556       24.26790473        3.82120400
     18.01332840       22.06173157        5.09493866
     16.21199556       22.06173157        0.00000000
     18.01332840       24.26790473        1.27373467
     18.91399482       24.26790473        3.82120400
     20.71532766       22.06173157        5.09493866
     18.91399482       22.06173157        0.00000000
     20.71532766       24.26790473        1.27373467
     21.61599408       24.26790473        3.82120400
     23.41732692       22.06173157        5.09493866
     21.61599408       22.06173157        0.00000000
     23.41732692       24.26790473        1.27373467
     24.31799334       24.26790473        3.82120400
     26.11932618       22.06173157        5.09493866
     24.31799334       22.06173157        0.00000000
     26.11932618       24.26790473        1.27373467
     27.01999260       24.26790473        3.82120400
     28.82132544       22.06173157        5.09493866
     27.01999260       22.06173157        0.00000000
     28.82132544       24.26790473        1.27373467
     29.72199186       24.26790473        3.82120400
     31.52332470       22.06173157        5.09493866
     29.72199186       22.06173157        0.00000000
     31.52332470       24.26790473        1.27373467
     32.42399112       24.26790473        3.82120400
     34.22532396       22.06173157        5.09493866
     32.42399112       22.06173157        0.00000000
     34.22532396       24.26790473        1.27373467
     35.12599038       24.26790473        3.82120400
     36.92732322       22.06173157        5.09493866
     35.12599038       22.06173157        0.00000000
     36.92732322       24.26790473        1.27373467
     37.82798964       24.26790473        3.82120400
     39.62932248       22.06173157        5.09493866
     37.82798964       22.06173157        0.00000000
     39.62932248       24.26790473        1.27373467
     40.52998890       24.26790473        3.82120400
     42.33132174       22.06173157        5.09493866
     40.52998890       22.06173157        0.00000000
     42.33132174       24.26790473        1.27373467
     43.23198816       24.26790473        3.82120400
     45.03332100       22.06173157        5.09493866
     43.23198816       22.06173157        0.00000000
     45.03332100       24.26790473        1.27373467
     45.93398742       24.26790473        3.82120400
     47.73532026       22.06173157        5.09493866
     45.93398742       22.06173157        0.00000000
     47.73532026       24.26790473        1.27373467
     48.63598668       24.26790473        3.82120400
     50.43731952       22.06173157        5.09493866
     48.63598668       22.06173157        0.00000000
     50.43731952       24.26790473        1.27373467
     51.33798594       24.26790473        3.82120400
     53.13931878       22.06173157        5.09493866
     51.33798594       22.06173157        0.00000000
     53.13931878       24.26790473        1.27373467
     54.03998520       24.26790473        3.82120400