# Bcc NiTi alloy oriented X=[100], Y=[010], Z=[001].
1.000000
     56.16000000        0.00000000        0.00000000
      0.00000000       56.16000000        0.00000000
      0.00000000        0.00000000       56.16000000
 Ni  Ti
  5832    5832
Cartesian
      0.00000000       -1.17000000        0.00000000
      3.12000000       -1.19917599        0.00000000
      6.24000000       -1.23175014        0.00000000
      9.36000000       -1.26801941        0.00000000
     12.48000000       -1.30819343        0.00000000
     15.60000000       -1.35232510        0.00000000
     18.72000000       -1.40023044        0.00000000
     21.84000000       -1.45141700        0.00000000
     24.96000000       -1.50505167        0.00000000
     28.08000000        1.56000000        0.00000000
     31.20000000        1.50505167        0.00000000
     34.32000000        1.45141700        0.00000000
     37.44000000        1.40023044        0.00000000
     40.56000000        1.35232510        0.00000000
     43.68000000        1.30819343        0.00000000
     46.80000000        1.26801941        0.00000000
     49.92000000        1.23175014        0.00000000
     53.04000000        1.19917599        0.00000000
      0.00000000        1.95000000        0.00000000
      3.12000000        1.92082401        0.00000000
      6.24000000        1.88824986        0.00000000
      9.36000000        1.85198059        0.00000000
     12.48000000        1.81180657        0.00000000
     15.60000000        1.76767490        0.00000000
     18.72000000        1.71976956        0.00000000
     21.84000000        1.66858300        0.00000000
     24.96000000        1.61494833        0.00000000
     28.08000000        4.68000000        0.00000000
     31.20000000        4.62505167        0.00000000
     34.32000000        4.57141700        0.00000000
     37.44000000        4.52023044        0.00000000
     40.56000000        4.47232510        0.00000000
     43.68000000        4.42819343        0.00000000
     46.80000000        4.38801941        0.00000000
     49.92000000        4.35175014        0.00000000
     53.04000000        4.31917599        0.00000000
      0.00000000        5.07000000        0.00000000
      3.12000000        5.04082401        0.00000000
      6.24000000        5.00824986        0.00000000
      9.36000000        4.97198059        0.00000000
     12.48000000        4.93180657        0.00000000
     15.60000000        4.88767490        0.00000000
     18.72000000        4.83976956        0.00000000
     21.84000000        4.78858300        0.00000000
     24.96000000        4.73494833        0.00000000
     28.08000000        7.80000000        0.00000000
     31.20000000        7.74505167        0.00000000
     34.32000000        7.69141700        0.00000000
     37.44000000        7.64023044        0.00000000
     40.56000000        7.59232510        0.00000000
     43.68000000        7.54819343        0.00000000
     46.80000000        7.50801941        0.00000000
     49.92000000        7.47175014        0.00000000
     53.04000000        7.43917599        0.00000000
      0.00000000        8.19000000        0.00000000
      3.12000000        8.16082401        0.00000000
      6.24000000        8.12824986        0.00000000
      9.36000000        8.09198059        0.00000000
     12.48000000        8.05180657        0.00000000
     15.60000000        8.00767490        0.00000000
     18.72000000        7.95976956        0.00000000
     21.84000000        7.90858300        0.00000000
     24.96000000        7.85494833        0.00000000
     28.08000000       10.92000000        0.00000000
     31.20000000       10.86505167        0.00000000
     34.32000000       10.81141700        0.00000000
     37.44000000       10.76023044        0.00000000
     40.56000000       10.71232510        0.00000000
     43.68000000       10.66819343        0.00000000
     46.80000000       10.62801941        0.00000000
     49.92000000       10.59175014        0.00000000
     53.04000000       10.55917599        0.00000000
      0.00000000       11.31000000        0.00000000
      3.12000000       11.28082401        0.00000000
      6.24000000       11.24824986        0.00000000
      9.36000000       11.21198059        0.00000000
     12.48000000       11.17180657        0.00000000
     15.60000000       11.12767490        0.00000000
     18.72000000       11.07976956        0.00000000
     21.84000000       11.02858300        0.00000000
     24.96000000       10.97494833        0.00000000
     28.08000000       14.04000000        0.00000000
     31.20000000       13.98505167        0.00000000
     34.32000000       13.93141700        0.00000000
     37.44000000       13.88023044        0.00000000
     40.56000000       13.83232510        0.00000000
     43.68000000       13.78819343        0.00000000
     46.80000000       13.74801941        0.00000000
     49.92000000       13.71175014        0.00000000
     53.04000000       13.67917599        0.00000000
      0.00000000       14.43000000        0.00000000
      3.12000000       14.40082401        0.00000000
      6.24000000       14.36824986        0.00000000
      9.36000000       14.33198059        0.00000000
     12.48000000       14.29180657        0.00000000
     15.60000000       14.24767490        0.00000000
     18.72000000       14.19976956        0.00000000
     21.84000000       14.14858300        0.00000000
     24.96000000       14.09494833        0.00000000
     28.08000000       17.16000000        0.00000000
     31.20000000       17.10505167        0.00000000
     34.32000000       17.05141700        0.00000000
     37.44000000       17.00023044        0.00000000
     40.56000000       16.95232510        0.00000000
     43.68000000       16.90819343        0.00000000
     46.80000000       16.86801941        0.00000000
     49.92000000       16.83175014        0.00000000
     53.04000000       16.79917599        0.00000000
      0.00000000       17.55000000        0.00000000
      3.12000000       17.52082401        0.00000000
      6.24000000       17.48824986        0.00000000
      9.36000000       17.45198059        0.00000000
     12.48000000       17.41180657        0.00000000
     15.60000000       17.36767490        0.00000000
     18.72000000       17.31976956        0.00000000
     21.84000000       17.26858300        0.00000000
     24.96000000       17.21494833        0.00000000
     28.08000000       20.28000000        0.00000000
     31.20000000       20.22505167        0.00000000
     34.32000000       20.17141700        0.00000000
     37.44000000       20.12023044        0.00000000
     40.56000000       20.07232510        0.00000000
     43.68000000       20.02819343        0.00000000
     46.80000000       19.98801941        0.00000000
     49.92000000       19.95175014        0.00000000
     53.04000000       19.91917599        0.00000000
      0.00000000       20.67000000        0.00000000
      3.12000000       20.64082401        0.00000000
      6.24000000       20.60824986        0.00000000
      9.36000000       20.57198059        0.00000000
     12.48000000       20.53180657        0.00000000
     15.60000000       20.48767490        0.00000000
     18.72000000       20.43976956        0.00000000
     21.84000000       20.38858300        0.00000000
     24.96000000       20.33494833        0.00000000
     28.08000000       23.40000000        0.00000000
     31.20000000       23.34505167        0.00000000
     34.32000000       23.29141700        0.00000000
     37.44000000       23.24023044        0.00000000
     40.56000000       23.19232510        0.00000000
     43.68000000       23.14819343        0.00000000
     46.80000000       23.10801941        0.00000000
     49.92000000       23.07175014        0.00000000
     53.04000000       23.03917599        0.00000000
      0.00000000       23.79000000        0.00000000
      3.12000000       23.76082401        0.00000000
      6.24000000       23.72824986        0.00000000
      9.36000000       23.69198059        0.00000000
     12.48000000       23.65180657        0.00000000
     15.60000000       23.60767490        0.00000000
     18.72000000       23.55976956        0.00000000
     21.84000000       23.50858300        0.00000000
     24.96000000       23.45494833        0.00000000
     28.08000000       26.52000000        0.00000000
     31.20000000       26.46505167        0.00000000
     34.32000000       26.41141700        0.00000000
     37.44000000       26.36023044        0.00000000
     40.56000000       26.31232510        0.00000000
     43.68000000       26.26819343        0.00000000
     46.80000000       26.22801941        0.00000000
     49.92000000       26.19175014        0.00000000
     53.04000000       26.15917599        0.00000000
      0.00000000       26.91000000        0.00000000
      3.12000000       26.88082401        0.00000000
      6.24000000       26.84824986        0.00000000
      9.36000000       26.81198059        0.00000000
     12.48000000       26.77180657        0.00000000
     15.60000000       26.72767490        0.00000000
     18.72000000       26.67976956        0.00000000
     21.84000000       26.62858300        0.00000000
     24.96000000       26.57494833        0.00000000
     28.08000000       29.64000000        0.00000000
     31.20000000       29.58505167        0.00000000
     34.32000000       29.53141700        0.00000000
     37.44000000       29.48023044        0.00000000
     40.56000000       29.43232510        0.00000000
     43.68000000       29.38819343        0.00000000
     46.80000000       29.34801941        0.00000000
     49.92000000       29.31175014        0.00000000
     53.04000000       29.27917599        0.00000000
      0.00000000       30.03000000        0.00000000
      3.12000000       30.00082401        0.00000000
      6.24000000       29.96824986        0.00000000
      9.36000000       29.93198059        0.00000000
     12.48000000       29.89180657        0.00000000
     15.60000000       29.84767490        0.00000000
     18.72000000       29.79976956        0.00000000
     21.84000000       29.74858300        0.00000000
     24.96000000       29.69494833        0.00000000
     28.08000000       32.76000000        0.00000000
     31.20000000       32.70505167        0.00000000
     34.32000000       32.65141700        0.00000000
     37.44000000       32.60023044        0.00000000
     40.56000000       32.55232510        0.00000000
     43.68000000       32.50819343        0.00000000
     46.80000000       32.46801941        0.00000000
     49.92000000       32.43175014        0.00000000
     53.04000000       32.39917599        0.00000000
      0.00000000       33.15000000        0.00000000
      3.12000000       33.12082401        0.00000000
      6.24000000       33.08824986        0.00000000
      9.36000000       33.05198059        0.00000000
     12.48000000       33.01180657        0.00000000
     15.60000000       32.96767490        0.00000000
     18.72000000       32.91976956        0.00000000
     21.84000000       32.86858300        0.00000000
     24.96000000       32.81494833        0.00000000
     28.08000000       35.88000000        0.00000000
     31.20000000       35.82505167        0.00000000
     34.32000000       35.77141700        0.00000000
     37.44000000       35.72023044        0.00000000
     40.56000000       35.67232510        0.00000000
     43.68000000       35.62819343        0.00000000
     46.80000000       35.58801941        0.00000000
     49.92000000       35.55175014        0.00000000
     53.04000000       35.51917599        0.00000000
      0.00000000       36.27000000        0.00000000
      3.12000000       36.24082401        0.00000000
      6.24000000       36.20824986        0.00000000
      9.36000000       36.17198059        0.00000000
     12.48000000       36.13180657        0.00000000
     15.60000000       36.08767490        0.00000000
     18.72000000       36.03976956        0.00000000
     21.84000000       35.98858300        0.00000000
     24.96000000       35.93494833        0.00000000
     28.08000000       39.00000000        0.00000000
     31.20000000       38.94505167        0.00000000
     34.32000000       38.89141700        0.00000000
     37.44000000       38.84023044        0.00000000
     40.56000000       38.79232510        0.00000000
     43.68000000       38.74819343        0.00000000
     46.80000000       38.70801941        0.00000000
     49.92000000       38.67175014        0.00000000
     53.04000000       38.63917599        0.00000000
      0.00000000       39.39000000        0.00000000
      3.12000000       39.36082401        0.00000000
      6.24000000       39.32824986        0.00000000
      9.36000000       39.29198059        0.00000000
     12.48000000       39.25180657        0.00000000
     15.60000000       39.20767490        0.00000000
     18.72000000       39.15976956        0.00000000
     21.84000000       39.10858300        0.00000000
     24.96000000       39.05494833        0.00000000
     28.08000000       42.12000000        0.00000000
     31.20000000       42.06505167        0.00000000
     34.32000000       42.01141700        0.00000000
     37.44000000       41.96023044        0.00000000
     40.56000000       41.91232510        0.00000000
     43.68000000       41.86819343        0.00000000
     46.80000000       41.82801941        0.00000000
     49.92000000       41.79175014        0.00000000
     53.04000000       41.75917599        0.00000000
      0.00000000       42.51000000        0.00000000
      3.12000000       42.48082401        0.00000000
      6.24000000       42.44824986        0.00000000
      9.36000000       42.41198059        0.00000000
     12.48000000       42.37180657        0.00000000
     15.60000000       42.32767490        0.00000000
     18.72000000       42.27976956        0.00000000
     21.84000000       42.22858300        0.00000000
     24.96000000       42.17494833        0.00000000
     28.08000000       45.24000000        0.00000000
     31.20000000       45.18505167        0.00000000
     34.32000000       45.13141700        0.00000000
     37.44000000       45.08023044        0.00000000
     40.56000000       45.03232510        0.00000000
     43.68000000       44.98819343        0.00000000
     46.80000000       44.94801941        0.00000000
     49.92000000       44.91175014        0.00000000
     53.04000000       44.87917599        0.00000000
      0.00000000       45.63000000        0.00000000
      3.12000000       45.60082401        0.00000000
      6.24000000       45.56824986        0.00000000
      9.36000000       45.53198059        0.00000000
     12.48000000       45.49180657        0.00000000
     15.60000000       45.44767490        0.00000000
     18.72000000       45.39976956        0.00000000
     21.84000000       45.34858300        0.00000000
     24.96000000       45.29494833        0.00000000
     28.08000000       48.36000000        0.00000000
     31.20000000       48.30505167        0.00000000
     34.32000000       48.25141700        0.00000000
     37.44000000       48.20023044        0.00000000
     40.56000000       48.15232510        0.00000000
     43.68000000       48.10819343        0.00000000
     46.80000000       48.06801941        0.00000000
     49.92000000       48.03175014        0.00000000
     53.04000000       47.99917599        0.00000000
      0.00000000       48.75000000        0.00000000
      3.12000000       48.72082401        0.00000000
      6.24000000       48.68824986        0.00000000
      9.36000000       48.65198059        0.00000000
     12.48000000       48.61180657        0.00000000
     15.60000000       48.56767490        0.00000000
     18.72000000       48.51976956        0.00000000
     21.84000000       48.46858300        0.00000000
     24.96000000       48.41494833        0.00000000
     28.08000000       51.48000000        0.00000000
     31.20000000       51.42505167        0.00000000
     34.32000000       51.37141700        0.00000000
     37.44000000       51.32023044        0.00000000
     40.56000000       51.27232510        0.00000000
     43.68000000       51.22819343        0.00000000
     46.80000000       51.18801941        0.00000000
     49.92000000       51.15175014        0.00000000
     53.04000000       51.11917599        0.00000000
      0.00000000       51.87000000        0.00000000
      3.12000000       51.84082401        0.00000000
      6.24000000       51.80824986        0.00000000
      9.36000000       51.77198059        0.00000000
     12.48000000       51.73180657        0.00000000
     15.60000000       51.68767490        0.00000000
     18.72000000       51.63976956        0.00000000
     21.84000000       51.58858300        0.00000000
     24.96000000       51.53494833        0.00000000
     28.08000000       54.60000000        0.00000000
     31.20000000       54.54505167        0.00000000
     34.32000000       54.49141700        0.00000000
     37.44000000       54.44023044        0.00000000
     40.56000000       54.39232510        0.00000000
     43.68000000       54.34819343        0.00000000
     46.80000000       54.30801941        0.00000000
     49.92000000       54.27175014        0.00000000
     53.04000000       54.23917599        0.00000000
      0.00000000       -1.14082401        3.12000000
      3.12000000       -1.17000000        3.12000000
      6.24000000       -1.20305532        3.12000000
      9.36000000       -1.24046089        3.12000000
     12.48000000       -1.28262001        3.12000000
     15.60000000       -1.32976956        3.12000000
     18.72000000       -1.38184761        3.12000000
     21.84000000       -1.43835256        3.12000000
     24.96000000       -1.49824986        3.12000000
     28.08000000        1.56000000        3.12000000
     31.20000000        1.49824986        3.12000000
     34.32000000        1.43835256        3.12000000
     37.44000000        1.38184761        3.12000000
     40.56000000        1.32976956        3.12000000
     43.68000000        1.28262001        3.12000000
     46.80000000        1.24046089        3.12000000
     49.92000000        1.20305532        3.12000000
     53.04000000        1.17000000        3.12000000
      0.00000000        1.97917599        3.12000000
      3.12000000        1.95000000        3.12000000
      6.24000000        1.91694468        3.12000000
      9.36000000        1.87953911        3.12000000
     12.48000000        1.83737999        3.12000000
     15.60000000        1.79023044        3.12000000
     18.72000000        1.73815239        3.12000000
     21.84000000        1.68164744        3.12000000
     24.96000000        1.62175014        3.12000000
     28.08000000        4.68000000        3.12000000
     31.20000000        4.61824986        3.12000000
     34.32000000        4.55835256        3.12000000
     37.44000000        4.50184761        3.12000000
     40.56000000        4.44976956        3.12000000
     43.68000000        4.40262001        3.12000000
     46.80000000        4.36046089        3.12000000
     49.92000000        4.32305532        3.12000000
     53.04000000        4.29000000        3.12000000
      0.00000000        5.09917599        3.12000000
      3.12000000        5.07000000        3.12000000
      6.24000000        5.03694468        3.12000000
      9.36000000        4.99953911        3.12000000
     12.48000000        4.95737999        3.12000000
     15.60000000        4.91023044        3.12000000
     18.72000000        4.85815239        3.12000000
     21.84000000        4.80164744        3.12000000
     24.96000000        4.74175014        3.12000000
     28.08000000        7.80000000        3.12000000
     31.20000000        7.73824986        3.12000000
     34.32000000        7.67835256        3.12000000
     37.44000000        7.62184761        3.12000000
     40.56000000        7.56976956        3.12000000
     43.68000000        7.52262001        3.12000000
     46.80000000        7.48046089        3.12000000
     49.92000000        7.44305532        3.12000000
     53.04000000        7.41000000        3.12000000
      0.00000000        8.21917599        3.12000000
      3.12000000        8.19000000        3.12000000
      6.24000000        8.15694468        3.12000000
      9.36000000        8.11953911        3.12000000
     12.48000000        8.07737999        3.12000000
     15.60000000        8.03023044        3.12000000
     18.72000000        7.97815239        3.12000000
     21.84000000        7.92164744        3.12000000
     24.96000000        7.86175014        3.12000000
     28.08000000       10.92000000        3.12000000
     31.20000000       10.85824986        3.12000000
     34.32000000       10.79835256        3.12000000
     37.44000000       10.74184761        3.12000000
     40.56000000       10.68976956        3.12000000
     43.68000000       10.64262001        3.12000000
     46.80000000       10.60046089        3.12000000
     49.92000000       10.56305532        3.12000000
     53.04000000       10.53000000        3.12000000
      0.00000000       11.33917599        3.12000000
      3.12000000       11.31000000        3.12000000
      6.24000000       11.27694468        3.12000000
      9.36000000       11.23953911        3.12000000
     12.48000000       11.19737999        3.12000000
     15.60000000       11.15023044        3.12000000
     18.72000000       11.09815239        3.12000000
     21.84000000       11.04164744        3.12000000
     24.96000000       10.98175014        3.12000000
     28.08000000       14.04000000        3.12000000
     31.20000000       13.97824986        3.12000000
     34.32000000       13.91835256        3.12000000
     37.44000000       13.86184761        3.12000000
     40.56000000       13.80976956        3.12000000
     43.68000000       13.76262001        3.12000000
     46.80000000       13.72046089        3.12000000
     49.92000000       13.68305532        3.12000000
     53.04000000       13.65000000        3.12000000
      0.00000000       14.45917599        3.12000000
      3.12000000       14.43000000        3.12000000
      6.24000000       14.39694468        3.12000000
      9.36000000       14.35953911        3.12000000
     12.48000000       14.31737999        3.12000000
     15.60000000       14.27023044        3.12000000
     18.72000000       14.21815239        3.12000000
     21.84000000       14.16164744        3.12000000
     24.96000000       14.10175014        3.12000000
     28.08000000       17.16000000        3.12000000
     31.20000000       17.09824986        3.12000000
     34.32000000       17.03835256        3.12000000
     37.44000000       16.98184761        3.12000000
     40.56000000       16.92976956        3.12000000
     43.68000000       16.88262001        3.12000000
     46.80000000       16.84046089        3.12000000
     49.92000000       16.80305532        3.12000000
     53.04000000       16.77000000        3.12000000
      0.00000000       17.57917599        3.12000000
      3.12000000       17.55000000        3.12000000
      6.24000000       17.51694468        3.12000000
      9.36000000       17.47953911        3.12000000
     12.48000000       17.43737999        3.12000000
     15.60000000       17.39023044        3.12000000
     18.72000000       17.33815239        3.12000000
     21.84000000       17.28164744        3.12000000
     24.96000000       17.22175014        3.12000000
     28.08000000       20.28000000        3.12000000
     31.20000000       20.21824986        3.12000000
     34.32000000       20.15835256        3.12000000
     37.44000000       20.10184761        3.12000000
     40.56000000       20.04976956        3.12000000
     43.68000000       20.00262001        3.12000000
     46.80000000       19.96046089        3.12000000
     49.92000000       19.92305532        3.12000000
     53.04000000       19.89000000        3.12000000
      0.00000000       20.69917599        3.12000000
      3.12000000       20.67000000        3.12000000
      6.24000000       20.63694468        3.12000000
      9.36000000       20.59953911        3.12000000
     12.48000000       20.55737999        3.12000000
     15.60000000       20.51023044        3.12000000
     18.72000000       20.45815239        3.12000000
     21.84000000       20.40164744        3.12000000
     24.96000000       20.34175014        3.12000000
     28.08000000       23.40000000        3.12000000
     31.20000000       23.33824986        3.12000000
     34.32000000       23.27835256        3.12000000
     37.44000000       23.22184761        3.12000000
     40.56000000       23.16976956        3.12000000
     43.68000000       23.12262001        3.12000000
     46.80000000       23.08046089        3.12000000
     49.92000000       23.04305532        3.12000000
     53.04000000       23.01000000        3.12000000
      0.00000000       23.81917599        3.12000000
      3.12000000       23.79000000        3.12000000
      6.24000000       23.75694468        3.12000000
      9.36000000       23.71953911        3.12000000
     12.48000000       23.67737999        3.12000000
     15.60000000       23.63023044        3.12000000
     18.72000000       23.57815239        3.12000000
     21.84000000       23.52164744        3.12000000
     24.96000000       23.46175014        3.12000000
     28.08000000       26.52000000        3.12000000
     31.20000000       26.45824986        3.12000000
     34.32000000       26.39835256        3.12000000
     37.44000000       26.34184761        3.12000000
     40.56000000       26.28976956        3.12000000
     43.68000000       26.24262001        3.12000000
     46.80000000       26.20046089        3.12000000
     49.92000000       26.16305532        3.12000000
     53.04000000       26.13000000        3.12000000
      0.00000000       26.93917599        3.12000000
      3.12000000       26.91000000        3.12000000
      6.24000000       26.87694468        3.12000000
      9.36000000       26.83953911        3.12000000
     12.48000000       26.79737999        3.12000000
     15.60000000       26.75023044        3.12000000
     18.72000000       26.69815239        3.12000000
     21.84000000       26.64164744        3.12000000
     24.96000000       26.58175014        3.12000000
     28.08000000       29.64000000        3.12000000
     31.20000000       29.57824986        3.12000000
     34.32000000       29.51835256        3.12000000
     37.44000000       29.46184761        3.12000000
     40.56000000       29.40976956        3.12000000
     43.68000000       29.36262001        3.12000000
     46.80000000       29.32046089        3.12000000
     49.92000000       29.28305532        3.12000000
     53.04000000       29.25000000        3.12000000
      0.00000000       30.05917599        3.12000000
      3.12000000       30.03000000        3.12000000
      6.24000000       29.99694468        3.12000000
      9.36000000       29.95953911        3.12000000
     12.48000000       29.91737999        3.12000000
     15.60000000       29.87023044        3.12000000
     18.72000000       29.81815239        3.12000000
     21.84000000       29.76164744        3.12000000
     24.96000000       29.70175014        3.12000000
     28.08000000       32.76000000        3.12000000
     31.20000000       32.69824986        3.12000000
     34.32000000       32.63835256        3.12000000
     37.44000000       32.58184761        3.12000000
     40.56000000       32.52976956        3.12000000
     43.68000000       32.48262001        3.12000000
     46.80000000       32.44046089        3.12000000
     49.92000000       32.40305532        3.12000000
     53.04000000       32.37000000        3.12000000
      0.00000000       33.17917599        3.12000000
      3.12000000       33.15000000        3.12000000
      6.24000000       33.11694468        3.12000000
      9.36000000       33.07953911        3.12000000
     12.48000000       33.03737999        3.12000000
     15.60000000       32.99023044        3.12000000
     18.72000000       32.93815239        3.12000000
     21.84000000       32.88164744        3.12000000
     24.96000000       32.82175014        3.12000000
     28.08000000       35.88000000        3.12000000
     31.20000000       35.81824986        3.12000000
     34.32000000       35.75835256        3.12000000
     37.44000000       35.70184761        3.12000000
     40.56000000       35.64976956        3.12000000
     43.68000000       35.60262001        3.12000000
     46.80000000       35.56046089        3.12000000
     49.92000000       35.52305532        3.12000000
     53.04000000       35.49000000        3.12000000
      0.00000000       36.29917599        3.12000000
      3.12000000       36.27000000        3.12000000
      6.24000000       36.23694468        3.12000000
      9.36000000       36.19953911        3.12000000
     12.48000000       36.15737999        3.12000000
     15.60000000       36.11023044        3.12000000
     18.72000000       36.05815239        3.12000000
     21.84000000       36.00164744        3.12000000
     24.96000000       35.94175014        3.12000000
     28.08000000       39.00000000        3.12000000
     31.20000000       38.93824986        3.12000000
     34.32000000       38.87835256        3.12000000
     37.44000000       38.82184761        3.12000000
     40.56000000       38.76976956        3.12000000
     43.68000000       38.72262001        3.12000000
     46.80000000       38.68046089        3.12000000
     49.92000000       38.64305532        3.12000000
     53.04000000       38.61000000        3.12000000
      0.00000000       39.41917599        3.12000000
      3.12000000       39.39000000        3.12000000
      6.24000000       39.35694468        3.12000000